Element Label,X1,X2,X3,S11,S22,S33,S12,S13,S23
1.0,-48.74999237060547,-48.74999237060547,0.8333339691162109,1.147987723350525,1.1762810945510864,0.14830124378204346,0.5486382842063904,-0.032183822244405746,-0.01568738929927349
2.0,-48.749969482421875,-46.294002532958984,0.8333295583724976,2.317544937133789,1.3718416690826416,0.039438411593437195,0.9458332657814026,0.004702129866927862,0.03564286231994629
3.0,-48.74994659423828,-43.924537658691406,0.8333028554916382,3.389504909515381,1.6335833072662354,0.15818220376968384,1.3641929626464844,0.027236027643084526,0.0031728739850223064
4.0,-48.749935150146484,-41.63856887817383,0.833247184753418,4.661819934844971,1.950227975845337,0.14501577615737915,1.7150050401687622,-0.029549147933721542,0.07450871914625168
5.0,-48.74990463256836,-39.43313217163086,0.8331726789474487,6.246757984161377,2.4485256671905518,0.25613120198249817,1.9777582883834839,-0.06448778510093689,0.0783301517367363
6.0,-48.7498779296875,-37.305389404296875,0.8330859541893005,7.964463233947754,2.9905576705932617,0.2988894283771515,2.201753854751587,-0.11918782442808151,0.12734095752239227
7.0,-48.749847412109375,-35.25260925292969,0.8329930901527405,9.81371021270752,3.580650806427002,0.3658396601676941,2.3827474117279053,-0.14103753864765167,0.10681670159101486
8.0,-48.74981689453125,-33.272151947021484,0.8328967690467834,11.692336082458496,4.175830841064453,0.396401047706604,2.519291877746582,-0.15194390714168549,0.13885195553302765
9.0,-48.749786376953125,-31.36147689819336,0.8328007459640503,13.569380760192871,4.769263744354248,0.4668414294719696,2.6197969913482666,-0.24525441229343414,0.1280371993780136
10.0,-48.749759674072266,-29.51810073852539,0.8327063322067261,15.424781799316406,5.365983009338379,0.5330953001976013,2.6976869106292725,-0.3316818177700043,0.11082028597593307
11.0,-48.74972915649414,-27.739673614501953,0.8326144814491272,17.15409278869629,5.848305702209473,0.49028828740119934,2.722191333770752,-0.3389875590801239,0.11358672380447388
12.0,-48.749698638916016,-26.023908615112305,0.832527220249176,18.896936416625977,6.445258617401123,0.6033077836036682,2.730397939682007,-0.35060974955558777,0.0931159257888794
13.0,-48.74967956542969,-24.36858367919922,0.8324452638626099,20.516969680786133,6.983395099639893,0.6361110210418701,2.721076011657715,-0.39066392183303833,0.04988674074411392
14.0,-48.749656677246094,-22.771575927734375,0.8323682546615601,22.073810577392578,7.536772727966309,0.7625437378883362,2.7061328887939453,-0.4349169135093689,0.07707797735929489
15.0,-48.749629974365234,-21.230833053588867,0.8322963118553162,23.429527282714844,7.880195617675781,0.7880944013595581,2.665658950805664,-0.4766281247138977,0.0981598049402237
16.0,-48.74960708618164,-19.74437141418457,0.8322306275367737,24.670833587646484,8.25412654876709,0.7642082571983337,2.5841257572174072,-0.538526713848114,0.061549101024866104
17.0,-48.749595642089844,-18.31028175354004,0.8321706056594849,25.879301071166992,8.682250022888184,0.8670220971107483,2.5137412548065186,-0.5815381407737732,0.045119758695364
18.0,-48.74957275390625,-16.926713943481445,0.8321161866188049,26.974363327026367,9.035984992980957,0.9403056502342224,2.4280660152435303,-0.5765205025672913,0.06395883113145828
19.0,-48.74955749511719,-15.591888427734375,0.8320674300193787,27.994796752929688,9.375578880310059,1.068521499633789,2.33059024810791,-0.5786283016204834,0.06650617718696594
20.0,-48.74954605102539,-14.304091453552246,0.8320237398147583,28.799013137817383,9.556775093078613,0.9614695310592651,2.215982437133789,-0.5961002707481384,0.06192651018500328
21.0,-48.749534606933594,-13.061662673950195,0.8319851160049438,29.567935943603516,9.747452735900879,0.9871654510498047,2.0856754779815674,-0.6302841305732727,0.0778428241610527
22.0,-48.749515533447266,-11.863007545471191,0.8319512009620667,30.31216812133789,10.029644966125488,1.0369235277175903,1.9560489654541016,-0.6243298649787903,0.06763896346092224
23.0,-48.74951171875,-10.706581115722656,0.8319216966629028,30.93983268737793,10.196427345275879,1.0834676027297974,1.8045966625213623,-0.6063432693481445,0.06360089033842087
24.0,-48.74950408935547,-9.590895652770996,0.8318963050842285,31.507383346557617,10.382216453552246,1.1461085081100464,1.6654330492019653,-0.6716007590293884,0.03613349422812462
25.0,-48.749488830566406,-8.514517784118652,0.8318739533424377,31.96619987487793,10.513392448425293,1.059740662574768,1.528718113899231,-0.6811342835426331,0.024659903720021248
26.0,-48.74948501586914,-7.476059436798096,0.8318552374839783,32.36918258666992,10.602900505065918,1.0688368082046509,1.3588190078735352,-0.6620782017707825,0.026524929329752922
27.0,-48.749481201171875,-6.474188804626465,0.8318396806716919,32.65237045288086,10.661911964416504,0.9737690687179565,1.2135018110275269,-0.6840740442276001,-0.002701600780710578
28.0,-48.74947738647461,-5.50761079788208,0.8318270444869995,32.95950698852539,10.737781524658203,1.0415593385696411,1.0704679489135742,-0.6517991423606873,0.015092505142092705
29.0,-48.74947738647461,-4.575088024139404,0.8318166136741638,33.30545425415039,10.95010757446289,1.2652922868728638,0.8984456658363342,-0.6811164617538452,-0.05121403560042381
205.0,-46.294002532958984,-48.74996566772461,0.8333288431167603,1.3943328857421875,2.3997981548309326,0.11619304120540619,0.8966259360313416,0.003857106203213334,0.019188424572348595
206.0,-46.293941497802734,-46.293941497802734,0.8332862257957458,2.6015427112579346,2.6854143142700195,-0.216936856508255,1.1650415658950806,0.0728108286857605,0.08993376046419144
207.0,-46.29388427734375,-43.924442291259766,0.8331433534622192,3.9955363273620605,2.8584935665130615,-0.030335363000631332,1.7330024242401123,0.10372841358184814,0.010681325569748878
208.0,-46.293819427490234,-41.638431549072266,0.8328867554664612,5.204265117645264,2.91048002243042,-0.19657351076602936,2.29083251953125,0.06063560023903847,0.1080707237124443
209.0,-46.29374694824219,-39.43296432495117,0.832548201084137,6.544826507568359,3.1077539920806885,-0.18493224680423737,2.7095391750335693,0.08654294908046722,0.05603114515542984
210.0,-46.29366683959961,-37.305206298828125,0.8321561217308044,7.930301189422607,3.369658946990967,-0.2334982007741928,3.052384853363037,0.08287719637155533,0.17995429039001465
211.0,-46.293582916259766,-35.25241470336914,0.8317332863807678,9.350974082946777,3.6585748195648193,-0.27293136715888977,3.2886948585510254,0.06908005475997925,0.1077517420053482
212.0,-46.29350280761719,-33.27194595336914,0.8312950134277344,10.759919166564941,3.9488718509674072,-0.40687769651412964,3.458312511444092,0.09667558968067169,0.12618286907672882
213.0,-46.29342269897461,-31.36125373840332,0.8308562636375427,12.279218673706055,4.344583511352539,-0.4207053780555725,3.5823473930358887,0.027202395722270012,0.12285835295915604
214.0,-46.2933349609375,-29.517879486083984,0.8304243087768555,13.804437637329102,4.763549327850342,-0.44874194264411926,3.704660415649414,-0.021105660125613213,0.13938795030117035
215.0,-46.293251037597656,-27.739442825317383,0.8300047516822815,15.221098899841309,5.043677806854248,-0.5307349562644958,3.7608160972595215,0.018292056396603584,0.11800878494977951
216.0,-46.29317855834961,-26.02366828918457,0.8296046853065491,16.60765266418457,5.375009536743164,-0.5142489075660706,3.799110174179077,0.007033888716250658,0.08590647578239441
217.0,-46.293094635009766,-24.36834716796875,0.8292278051376343,17.882728576660156,5.6830902099609375,-0.6719440817832947,3.792665719985962,-0.04273714870214462,0.03892504796385765
218.0,-46.293033599853516,-22.771345138549805,0.8288736939430237,19.181150436401367,6.032935619354248,-0.639460027217865,3.723224401473999,-0.04945218190550804,0.06189856305718422
219.0,-46.292972564697266,-21.23060417175293,0.8285449743270874,20.302309036254883,6.170905590057373,-0.6449801325798035,3.632120132446289,-0.014274196699261665,0.09808456897735596
220.0,-46.292911529541016,-19.74414825439453,0.8282436728477478,21.315322875976562,6.345557689666748,-0.788979172706604,3.5185301303863525,-0.04999560862779617,0.06360212713479996
221.0,-46.29285430908203,-18.310060501098633,0.8279685378074646,22.371185302734375,6.648403644561768,-0.7310781478881836,3.40663480758667,-0.08953053504228592,0.06271689385175705
222.0,-46.29281234741211,-16.926504135131836,0.8277183175086975,23.216157913208008,6.729328632354736,-0.8755561113357544,3.249640941619873,-0.06721197813749313,0.07546966522932053
223.0,-46.29277038574219,-15.59168815612793,0.8274931311607361,24.087068557739258,6.933688640594482,-0.8500390648841858,3.070904016494751,-0.09171909093856812,0.08240785449743271
224.0,-46.292728424072266,-14.303899765014648,0.8272916078567505,24.812299728393555,7.006264686584473,-0.9302850365638733,2.8841915130615234,-0.11675895750522614,0.08316319435834885
225.0,-46.292694091796875,-13.061485290527344,0.8271122574806213,25.533767700195312,7.129830360412598,-0.8942211866378784,2.7029876708984375,-0.13284121453762054,0.08009592443704605
226.0,-46.292659759521484,-11.862842559814453,0.8269539475440979,26.12600326538086,7.2406463623046875,-0.9988369345664978,2.5083200931549072,-0.1274653524160385,0.060261305421590805
227.0,-46.29262924194336,-10.706427574157715,0.8268160223960876,26.663875579833984,7.3338236808776855,-0.9902836084365845,2.2751684188842773,-0.12961627542972565,0.05285119265317917
228.0,-46.2926025390625,-9.590752601623535,0.8266963362693787,27.102519989013672,7.394293785095215,-1.0432072877883911,2.0913259983062744,-0.22718952596187592,-0.0008242246694862843
229.0,-46.292579650878906,-8.514389038085938,0.8265928030014038,27.538496017456055,7.51777982711792,-0.9951910376548767,1.9047460556030273,-0.2421024739742279,0.0033945334143936634
230.0,-46.29256820678711,-7.475944995880127,0.8265055418014526,27.922012329101562,7.560413837432861,-0.9174633622169495,1.6603652238845825,-0.2180647850036621,0.0017602668376639485
231.0,-46.292545318603516,-6.474085807800293,0.8264332413673401,28.25927734375,7.714878559112549,-0.9457195997238159,1.4581398963928223,-0.24937035143375397,-0.0077309757471084595
232.0,-46.292537689208984,-5.507522106170654,0.8263732194900513,28.51833724975586,7.725787162780762,-0.8667880296707153,1.2844599485397339,-0.19364959001541138,0.028969820588827133
233.0,-46.292518615722656,-4.575011730194092,0.8263245820999146,28.625240325927734,7.624907970428467,-1.1347779035568237,1.0946186780929565,-0.12396497279405594,-0.0562511645257473
409.0,-43.92455291748047,-48.74994659423828,0.8333019614219666,1.6622525453567505,3.5084803104400635,0.23830662667751312,1.325170636177063,-0.003587916726246476,0.06422104686498642
410.0,-43.92444610595703,-46.293880462646484,0.8331422805786133,2.714777946472168,4.086391448974609,-0.05339454859495163,1.7221630811691284,0.0043206531554460526,0.13668979704380035
411.0,-43.924346923828125,-43.924339294433594,0.8327507376670837,4.0303215980529785,4.179248332977295,0.17108212411403656,2.3171184062957764,-0.01960352249443531,0.0006994368159212172
412.0,-43.92424011230469,-41.63828659057617,0.8321228623390198,5.289566516876221,4.120847702026367,0.13161160051822662,2.890495538711548,-0.08754873275756836,0.08715857565402985
413.0,-43.924129486083984,-39.432796478271484,0.8313193321228027,6.4980268478393555,4.033597946166992,0.20398972928524017,3.345031976699829,-0.0853012278676033,-0.009632914327085018
414.0,-43.924007415771484,-37.30501174926758,0.8303961157798767,7.670941352844238,4.092788219451904,0.19487330317497253,3.7316458225250244,-0.10376708954572678,0.1250559687614441
415.0,-43.92388153076172,-35.252201080322266,0.8294005990028381,8.820298194885254,4.21649169921875,0.26391276717185974,4.036060810089111,-0.18814560770988464,0.02410651370882988
416.0,-43.92375946044922,-33.2717170715332,0.8283687829971313,9.928833961486816,4.348562240600586,0.2517850697040558,4.325191497802734,-0.21347679197788239,0.029825344681739807
417.0,-43.923622131347656,-31.361011505126953,0.827332615852356,11.175873756408691,4.652817249298096,0.42090579867362976,4.549846172332764,-0.23641826212406158,0.020633220672607422
418.0,-43.923500061035156,-29.51762580871582,0.8263119459152222,12.32926082611084,4.869411468505859,0.40005016326904297,4.709627151489258,-0.27397680282592773,0.07553140074014664
419.0,-43.923377990722656,-27.739192962646484,0.8253206014633179,13.499969482421875,5.053490161895752,0.5082407593727112,4.753059387207031,-0.31198182702064514,0.03523051366209984
420.0,-43.92327117919922,-26.02341079711914,0.8243738412857056,14.566801071166992,5.088687419891357,0.524286687374115,4.752630233764648,-0.3749516010284424,0.04293683171272278
421.0,-43.92315673828125,-24.36808967590332,0.8234807252883911,15.670891761779785,5.317558765411377,0.5595899224281311,4.73671293258667,-0.4338395297527313,0.0323626734316349
422.0,-43.92304992675781,-22.771087646484375,0.8226422667503357,16.66119956970215,5.337864875793457,0.5166628956794739,4.625854969024658,-0.45006364583969116,0.050000421702861786
423.0,-43.92295837402344,-21.230356216430664,0.8218635320663452,17.705995559692383,5.439204216003418,0.7054531574249268,4.452123165130615,-0.42998698353767395,0.06058501452207565
424.0,-43.92286682128906,-19.74390983581543,0.8211475014686584,18.590242385864258,5.531466484069824,0.6457817554473877,4.26209831237793,-0.4612869918346405,0.02600717730820179
425.0,-43.92279052734375,-18.309831619262695,0.8204935789108276,19.450380325317383,5.658493995666504,0.7132318019866943,4.073212146759033,-0.5188637375831604,0.0373234897851944
426.0,-43.922706604003906,-16.926284790039062,0.8198990225791931,20.223085403442383,5.7326507568359375,0.7474269270896912,3.88266921043396,-0.5559062361717224,-0.01765194535255432
427.0,-43.922637939453125,-15.591482162475586,0.8193626403808594,20.904678344726562,5.761890888214111,0.7231940627098083,3.666839838027954,-0.6212220191955566,0.0414259135723114
428.0,-43.922576904296875,-14.303704261779785,0.8188828825950623,21.592575073242188,5.859927654266357,0.8617415428161621,3.444017171859741,-0.6716212630271912,0.042644061148166656
429.0,-43.92251968383789,-13.061302185058594,0.8184557557106018,22.162757873535156,5.918474197387695,0.8421325087547302,3.2382798194885254,-0.6669880151748657,0.017048805952072144
430.0,-43.92247009277344,-11.8626708984375,0.8180789351463318,22.641950607299805,5.902695178985596,0.7903112769126892,2.9973127841949463,-0.6579422354698181,0.04294198378920555
431.0,-43.922428131103516,-10.706270217895508,0.8177494406700134,23.152923583984375,5.987414360046387,0.8811153769493103,2.7431299686431885,-0.6378912329673767,6.106504588387907e-05
432.0,-43.92238998413086,-9.590611457824707,0.8174628019332886,23.551132202148438,6.032149314880371,0.7948617339134216,2.521648645401001,-0.6341819167137146,-0.05031340941786766
433.0,-43.92235565185547,-8.51425838470459,0.8172158002853394,23.946205139160156,6.072658061981201,0.919481635093689,2.29975962638855,-0.7111645936965942,-0.05136167258024216
434.0,-43.92232894897461,-7.475826740264893,0.8170066475868225,24.205156326293945,6.002727031707764,0.8625250458717346,2.0689191818237305,-0.7135800123214722,-0.005886845290660858
435.0,-43.922298431396484,-6.473982810974121,0.816832423210144,24.558101654052734,6.1752848625183105,0.9031232595443726,1.817672848701477,-0.6963410973548889,0.07451057434082031
436.0,-43.92227554321289,-5.507431507110596,0.8166877031326294,24.698488235473633,6.035094738006592,0.8270516991615295,1.5428106784820557,-0.7652757167816162,0.018935183063149452
437.0,-43.922264099121094,-4.574934482574463,0.8165708184242249,24.8568115234375,6.040346145629883,0.8283405303955078,1.3666411638259888,-0.6864219307899475,-0.009776088409125805
613.0,-41.63857650756836,-48.74993133544922,0.8332476019859314,1.9779645204544067,4.818542957305908,0.18282757699489594,1.6237019300460815,0.06778731197118759,0.036928560584783554
614.0,-41.6384391784668,-46.29381561279297,0.8328875303268433,2.862262725830078,5.315654277801514,-0.20457734167575836,2.1964797973632812,0.07482609152793884,0.15662182867527008
615.0,-41.638301849365234,-43.92422866821289,0.8321229219436646,4.021450519561768,5.301215648651123,0.015400594100356102,2.8841958045959473,0.05551842227578163,-0.05470987781882286
616.0,-41.63815689086914,-41.63814163208008,0.8309836983680725,4.999217510223389,4.97865629196167,-0.19593559205532074,3.434617757797241,0.08623994886875153,0.08940544724464417
617.0,-41.638004302978516,-39.432621002197266,0.8295655846595764,6.088109970092773,4.707266330718994,-0.04307946935296059,3.913261890411377,0.07828079909086227,-0.002115365117788315
618.0,-41.637847900390625,-37.3048095703125,0.8279518485069275,7.029513835906982,4.555017948150635,-0.20428159832954407,4.3395609855651855,0.06638479977846146,0.09058764576911926
619.0,-41.637691497802734,-35.25197982788086,0.8262172341346741,8.024391174316406,4.481804370880127,-0.20880962908267975,4.693817615509033,0.031795550137758255,-0.012885755859315395
620.0,-41.63753128051758,-33.271480560302734,0.8244227766990662,8.932293891906738,4.417842388153076,-0.33662986755371094,4.980668544769287,0.034285422414541245,0.056830890476703644
621.0,-41.63737487792969,-31.360761642456055,0.8226199746131897,9.89771556854248,4.447314739227295,-0.2583402097225189,5.23144006729126,0.04213378578424454,0.03230873867869377
622.0,-41.637210845947266,-29.517366409301758,0.8208442330360413,10.744743347167969,4.318722248077393,-0.4535617530345917,5.370811939239502,0.0046395170502364635,0.08886498957872391
623.0,-41.63706588745117,-27.738924026489258,0.8191210031509399,11.75924301147461,4.292879581451416,-0.36913084983825684,5.412854194641113,-0.007361550349742174,0.0011673033004626632
624.0,-41.63691711425781,-26.02314567565918,0.817473292350769,12.66162109375,4.105748653411865,-0.5441718101501465,5.383105754852295,-0.010397416539490223,0.026783840730786324
625.0,-41.636775970458984,-24.367826461791992,0.815916121006012,13.718488693237305,4.246320724487305,-0.39385488629341125,5.347102642059326,-0.018557092174887657,0.04226425662636757
626.0,-41.63663864135742,-22.770828247070312,0.8144541382789612,14.504507064819336,4.0290398597717285,-0.5192441344261169,5.238778591156006,-0.0024278739001601934,0.09049033373594284
627.0,-41.63650894165039,-21.2301025390625,0.813095211982727,15.258232116699219,3.8499889373779297,-0.5719919204711914,5.068867206573486,-0.03767505660653114,0.053832896053791046
628.0,-41.63640213012695,-19.74366569519043,0.8118448257446289,15.975130081176758,3.8136043548583984,-0.698667585849762,4.900829792022705,-0.10345970839262009,0.009794347919523716
629.0,-41.636295318603516,-18.309598922729492,0.8107027411460876,16.726892471313477,3.7741336822509766,-0.6400647759437561,4.719288349151611,-0.10333448648452759,-0.016078101471066475
630.0,-41.636199951171875,-16.926057815551758,0.8096647262573242,17.500534057617188,3.89625883102417,-0.5450782179832458,4.518858432769775,-0.055931977927684784,-0.08813119679689407
631.0,-41.636112213134766,-15.591268539428711,0.8087273836135864,18.006731033325195,3.6903247833251953,-0.6788175106048584,4.258411407470703,-0.04722508415579796,0.045277561992406845
632.0,-41.63603210449219,-14.303504943847656,0.807888925075531,18.53944206237793,3.661498546600342,-0.6986917853355408,4.009535312652588,-0.06477136164903641,0.0029595757368952036
633.0,-41.635955810546875,-13.061113357543945,0.8071426749229431,19.03387451171875,3.6586499214172363,-0.7751831412315369,3.7820544242858887,-0.07718098908662796,-0.044149816036224365
634.0,-41.63589096069336,-11.862496376037598,0.8064841628074646,19.528215408325195,3.6122663021087646,-0.677433431148529,3.485128164291382,-0.16752538084983826,0.024975283071398735
635.0,-41.635833740234375,-10.706109046936035,0.8059076070785522,19.93282127380371,3.5741231441497803,-0.70258629322052,3.196889638900757,-0.1950419545173645,0.025279076769948006
636.0,-41.63577651977539,-9.590462684631348,0.8054060339927673,20.323225021362305,3.574197769165039,-0.7189989686012268,2.922370672225952,-0.1350090503692627,0.005442055873572826
637.0,-41.635738372802734,-8.514124870300293,0.8049739599227905,20.64920997619629,3.4974303245544434,-0.7242650985717773,2.6017892360687256,-0.1978221833705902,-0.09541480988264084
638.0,-41.63570022583008,-7.475708961486816,0.8046068549156189,20.88911247253418,3.4228403568267822,-0.8126330971717834,2.3187007904052734,-0.14459188282489777,0.02600930817425251
639.0,-41.63566589355469,-6.473877429962158,0.8042999505996704,21.173505783081055,3.4589293003082275,-0.681410551071167,1.9980756044387817,-0.07932420819997787,0.1414036601781845
640.0,-41.63563919067383,-5.50734281539917,0.804046094417572,21.279661178588867,3.313080310821533,-0.8024560213088989,1.6743934154510498,-0.24377164244651794,-0.0036036742385476828
641.0,-41.635616302490234,-4.574859619140625,0.803840160369873,21.544696807861328,3.4277186393737793,-0.7529712915420532,1.4964028596878052,-0.22234269976615906,-0.021266493946313858
817.0,-39.43313217163086,-48.74990463256836,0.8331743478775024,2.4536001682281494,6.391427993774414,0.20103611052036285,1.8838427066802979,0.07608842104673386,-0.029972556978464127
818.0,-39.432979583740234,-46.29373550415039,0.832551121711731,3.197195291519165,6.746440887451172,-0.13065774738788605,2.6742823123931885,0.0288345068693161,0.12241591513156891
819.0,-39.43281173706055,-43.92411804199219,0.8313194513320923,4.15922212600708,6.505733013153076,0.238448828458786,3.4126358032226562,-0.05770415812730789,-0.11028648167848587
820.0,-39.4326286315918,-41.637996673583984,0.8295649290084839,4.804109573364258,5.972837448120117,-0.11902869492769241,3.9867405891418457,-0.02933761663734913,0.07308367639780045
821.0,-39.432437896728516,-39.432437896728516,0.8274217247962952,5.7600789070129395,5.713935375213623,0.23932527005672455,4.486664295196533,-0.07275795191526413,-0.05302944406867027
822.0,-39.432254791259766,-37.30459976196289,0.8250026106834412,6.468505859375,5.360382556915283,0.08936364203691483,4.9369587898254395,-0.10065031051635742,0.0460875928401947
823.0,-39.432071685791016,-35.25174331665039,0.8224143385887146,7.284992694854736,5.10980749130249,0.27818062901496887,5.322301387786865,-0.07481466978788376,-0.06807931512594223
824.0,-39.431884765625,-33.2712287902832,0.8197445273399353,7.9583964347839355,4.8255133628845215,0.17115220427513123,5.585636615753174,-0.10486919432878494,0.015342810191214085
825.0,-39.431697845458984,-31.36050033569336,0.8170652389526367,8.799759864807129,4.658146381378174,0.3518392741680145,5.8646039962768555,-0.19989171624183655,-0.01965237408876419
826.0,-39.431514739990234,-29.517093658447266,0.8144274353981018,9.56277084350586,4.385300159454346,0.26492974162101746,6.009669303894043,-0.2854306697845459,0.06163115054368973
827.0,-39.431331634521484,-27.738649368286133,0.8118687868118286,10.477577209472656,4.207190990447998,0.4824567437171936,6.114520072937012,-0.34823960065841675,-0.06236165016889572
828.0,-39.431156158447266,-26.02287483215332,0.8094197511672974,11.221866607666016,3.941194772720337,0.3391701877117157,6.08033561706543,-0.38061243295669556,-0.022818414494395256
829.0,-39.43099594116211,-24.3675537109375,0.8071035146713257,12.05167007446289,3.8452699184417725,0.5069641470909119,6.027225971221924,-0.3878132998943329,0.006990236230194569
830.0,-39.43083572387695,-22.770566940307617,0.8049308061599731,12.721075057983398,3.5454885959625244,0.4844433665275574,5.905567646026611,-0.3636458218097687,0.00587876932695508
831.0,-39.43069076538086,-21.229843139648438,0.8029116988182068,13.398801803588867,3.323486566543579,0.5227379202842712,5.691208362579346,-0.35167810320854187,-0.03703046217560768
832.0,-39.43055725097656,-19.7434139251709,0.801052451133728,14.039923667907715,3.167560338973999,0.5338851809501648,5.494616985321045,-0.4218617081642151,-0.006426256615668535
833.0,-39.4304313659668,-18.309358596801758,0.7993540167808533,14.650487899780273,3.003293991088867,0.6079575419425964,5.271598815917969,-0.4861118793487549,-0.023420054465532303
834.0,-39.43031692504883,-16.92582893371582,0.7978110909461975,15.161001205444336,2.8674583435058594,0.551546037197113,5.009150981903076,-0.47279977798461914,-0.06429412215948105
835.0,-39.43021011352539,-15.59105110168457,0.796418309211731,15.62331485748291,2.6731932163238525,0.52107173204422,4.695003986358643,-0.5185649991035461,-0.05740359053015709
836.0,-39.43011474609375,-14.303300857543945,0.7951716780662537,16.109899520874023,2.562408685684204,0.4967019259929657,4.439838409423828,-0.5715270042419434,-0.08247844129800797
837.0,-39.43002700805664,-13.06092643737793,0.7940628528594971,16.64904022216797,2.5539357662200928,0.6433663964271545,4.167194843292236,-0.5293443202972412,-0.0845140665769577
838.0,-39.42995071411133,-11.862320899963379,0.7930837273597717,17.00897789001465,2.355823278427124,0.604215681552887,3.8213486671447754,-0.5599752068519592,-0.051141850650310516
839.0,-39.42988204956055,-10.705947875976562,0.7922267317771912,17.403703689575195,2.3177130222320557,0.6275983452796936,3.499101400375366,-0.6470675468444824,0.01111674401909113
840.0,-39.4298210144043,-9.590317726135254,0.7914819717407227,17.735380172729492,2.20100998878479,0.7328282594680786,3.1882269382476807,-0.6467053890228271,0.033361706882715225
841.0,-39.42977523803711,-8.513995170593262,0.7908405065536499,17.907651901245117,2.023195505142212,0.5671427249908447,2.8550820350646973,-0.6256608366966248,-0.04003563150763512
842.0,-39.42972183227539,-7.4755940437316895,0.7902951836585999,18.167869567871094,1.9710952043533325,0.6389565467834473,2.531038284301758,-0.6067375540733337,0.034214120358228683
843.0,-39.429683685302734,-6.473778247833252,0.7898383736610413,18.45725440979004,1.977655291557312,0.7663272619247437,2.204271078109741,-0.5754606127738953,0.043260637670755386
844.0,-39.42964553833008,-5.507257461547852,0.7894605994224548,18.560331344604492,1.853897213935852,0.5255174040794373,1.8673956394195557,-0.6149716973304749,0.005855238065123558
845.0,-39.429622650146484,-4.574788570404053,0.7891545295715332,18.743162155151367,1.8922346830368042,0.704133152961731,1.6312257051467896,-0.6745038628578186,0.04490642249584198
1021.0,-37.30539321899414,-48.749874114990234,0.8330879211425781,3.006803274154663,8.148653984069824,0.2085496038198471,2.0869197845458984,0.11603481322526932,-0.07086542248725891
1022.0,-37.30521774291992,-46.293663024902344,0.8321581482887268,3.424010753631592,8.07494068145752,-0.28761932253837585,3.0125370025634766,0.118766650557518,0.10467936098575592
1023.0,-37.305023193359375,-43.92399597167969,0.8303948640823364,4.18964147567749,7.562884330749512,0.2006680816411972,3.790900945663452,0.05893861874938011,-0.1290573626756668
1024.0,-37.304813385009766,-41.63784408569336,0.8279519081115723,4.667807102203369,6.971672058105469,-0.23666499555110931,4.411217212677002,0.11523884534835815,0.07953333109617233
1025.0,-37.30459976196289,-39.432247161865234,0.8250040411949158,5.450156211853027,6.59373140335083,0.12970693409442902,4.914229869842529,0.08012568950653076,-0.12234388291835785
1026.0,-37.30439376831055,-37.304386138916016,0.8217014670372009,5.815567970275879,5.876723766326904,-0.30486127734184265,5.326929092407227,0.023099135607481003,0.030641790479421616
1027.0,-37.30418395996094,-35.25151062011719,0.8181877136230469,6.465663433074951,5.438918590545654,-0.06256452202796936,5.698057174682617,0.03871689736843109,-0.05697865039110184
1028.0,-37.30398178100586,-33.27096939086914,0.814573347568512,6.996825218200684,4.877956867218018,-0.3097963035106659,5.9982404708862305,0.029017653316259384,0.022563744336366653
1029.0,-37.30377197265625,-31.360231399536133,0.8109487891197205,7.753561973571777,4.496992111206055,-0.1839127391576767,6.298102378845215,-0.009903575293719769,-0.0885733887553215
1030.0,-37.30356216430664,-29.51681900024414,0.8073810338973999,8.395878791809082,4.1214165687561035,-0.3276958763599396,6.491790771484375,-0.015562877990305424,-0.03565875068306923
1031.0,-37.30335998535156,-27.738372802734375,0.8039222359657288,9.06371021270752,3.683717727661133,-0.24181602895259857,6.650992393493652,-0.05004781857132912,-0.08113998919725418
1032.0,-37.30316162109375,-26.02259635925293,0.8006118535995483,9.612139701843262,3.243543863296509,-0.42732474207878113,6.65472412109375,-0.03526205196976662,-0.014021052978932858
1033.0,-37.302974700927734,-24.367279052734375,0.797480583190918,10.276907920837402,2.8356993198394775,-0.3647546172142029,6.616428852081299,-0.043231651186943054,-0.03029825910925865
1034.0,-37.302799224853516,-22.770292282104492,0.7945471405982971,10.831409454345703,2.3583757877349854,-0.5146049857139587,6.498748302459717,-0.13652391731739044,-0.06706724315881729
1035.0,-37.30263137817383,-21.229581832885742,0.7918214201927185,11.478865623474121,2.0463171005249023,-0.422651082277298,6.256271839141846,-0.13268661499023438,-0.08459380269050598
1036.0,-37.3024787902832,-19.743162155151367,0.7893112897872925,11.98459529876709,1.6891915798187256,-0.5126388072967529,6.02638578414917,-0.08557312935590744,-0.015685178339481354
1037.0,-37.30234146118164,-18.309114456176758,0.7870185375213623,12.457869529724121,1.3903638124465942,-0.5554860234260559,5.788150787353516,-0.09974588453769684,-0.0017281034961342812
1038.0,-37.30221176147461,-16.925600051879883,0.7849376201629639,12.899552345275879,1.1249327659606934,-0.5538106560707092,5.510713577270508,-0.12012290209531784,-0.027446212247014046
1039.0,-37.30209732055664,-15.590829849243164,0.7830610871315002,13.414994239807129,1.0127898454666138,-0.41544073820114136,5.227692127227783,-0.1808997392654419,-0.1372106522321701
1040.0,-37.30198669433594,-14.303093910217285,0.781382143497467,13.803239822387695,0.751952588558197,-0.50627201795578,4.958022594451904,-0.22818611562252045,-0.05854138359427452
1041.0,-37.301883697509766,-13.060730934143066,0.7798900604248047,14.214509010314941,0.5261420607566833,-0.4325614273548126,4.638711452484131,-0.17393356561660767,-0.06671348214149475
1042.0,-37.30179977416992,-11.862144470214844,0.7785730361938477,14.510376930236816,0.32283303141593933,-0.5817640423774719,4.277470111846924,-0.09583497792482376,-0.07653003931045532
1043.0,-37.30172348022461,-10.70578670501709,0.7774214148521423,14.798864364624023,0.1201077550649643,-0.5859090685844421,3.9159035682678223,-0.12661927938461304,-0.013026831671595573
1044.0,-37.3016471862793,-9.590171813964844,0.7764219641685486,15.07655143737793,-0.04416601359844208,-0.5556754469871521,3.5657706260681152,-0.18683288991451263,-0.014060975052416325
1045.0,-37.30158615112305,-8.513863563537598,0.775562047958374,15.288146018981934,-0.19371899962425232,-0.6210910677909851,3.1996541023254395,-0.1648460030555725,0.0022213768679648638
1046.0,-37.30153274536133,-7.475478172302246,0.774831235408783,15.479158401489258,-0.33362215757369995,-0.5539875626564026,2.837372064590454,-0.21713081002235413,0.0032024660613387823
1047.0,-37.30149459838867,-6.473677635192871,0.7742184400558472,15.613077163696289,-0.4253423810005188,-0.4758818447589874,2.4731500148773193,-0.2279970943927765,-0.069489985704422
1048.0,-37.301456451416016,-5.507171630859375,0.7737122774124146,15.680800437927246,-0.530006468296051,-0.5797211527824402,2.11372447013855,-0.11202980577945709,-0.0633946880698204
1225.0,-35.252620697021484,-48.74984359741211,0.8329948782920837,3.6824934482574463,10.063759803771973,0.37187954783439636,2.258601188659668,0.1003573089838028,-0.09596806019544601
1226.0,-35.25242233276367,-46.2935791015625,0.8317355513572693,3.8175370693206787,9.533364295959473,-0.29366353154182434,3.2936456203460693,0.07342167943716049,0.092896968126297
1227.0,-35.2522087097168,-43.923866271972656,0.8294005990028381,4.394065856933594,8.793522834777832,0.2952776253223419,4.183032512664795,-0.01809028349816799,-0.13214097917079926
1228.0,-35.25197982788086,-41.6376838684082,0.8262180685997009,4.603794097900391,8.05785083770752,-0.17190338671207428,4.807661056518555,-0.01808336190879345,0.07882340997457504
1229.0,-35.25175094604492,-39.43205642700195,0.8224145174026489,5.11724328994751,7.436224937438965,0.29736682772636414,5.28931188583374,-0.04489459842443466,-0.18466220796108246
1230.0,-35.251522064208984,-37.30417251586914,0.8181853890419006,5.334428787231445,6.644794464111328,-0.04960948973894119,5.697879791259766,-0.07473182678222656,0.0114802410826087
1231.0,-35.25129318237305,-35.251277923583984,0.8137063384056091,5.942813396453857,6.065240859985352,0.3074704110622406,6.114039897918701,-0.14147089421749115,-0.06666005402803421
1232.0,-35.25106430053711,-33.270721435546875,0.8091076612472534,6.35589599609375,5.338805675506592,0.030870486050844193,6.459633827209473,-0.17569446563720703,0.030701858922839165
1233.0,-35.25083541870117,-31.359970092773438,0.8044997453689575,6.926155090332031,4.808207988739014,0.31400224566459656,6.7479329109191895,-0.2008214294910431,-0.13453145325183868
1234.0,-35.250614166259766,-29.51655387878418,0.7999681830406189,7.356006145477295,4.275104999542236,0.16690239310264587,6.982974529266357,-0.2470538467168808,-0.07004979252815247
1235.0,-35.25039291381836,-27.73809814453125,0.7955795526504517,7.902661323547363,3.708108425140381,0.33956146240234375,7.069045543670654,-0.2499108612537384,-0.06211375817656517
1236.0,-35.250179290771484,-26.022319793701172,0.7913817167282104,8.342440605163574,3.146749258041382,0.2398054450750351,7.074406623840332,-0.2162180244922638,-0.06123780831694603
1237.0,-35.24997329711914,-24.367002487182617,0.7874117493629456,8.896424293518066,2.5352046489715576,0.3857240378856659,7.053471565246582,-0.24944184720516205,-0.06863594055175781
1238.0,-35.24977493286133,-22.77001953125,0.7836952805519104,9.390469551086426,2.05342698097229,0.3545915484428406,6.9382243156433105,-0.32984602451324463,-0.04084312543272972
1239.0,-35.24959182739258,-21.229310989379883,0.7802443504333496,9.798850059509277,1.4609904289245605,0.37689709663391113,6.737305164337158,-0.38315489888191223,-0.11689979583024979
1240.0,-35.24942398071289,-19.74289894104004,0.7770677208900452,10.248373985290527,1.0805100202560425,0.38989540934562683,6.5230817794799805,-0.3823662996292114,-0.05900532379746437
1241.0,-35.249271392822266,-18.308866500854492,0.7741685509681702,10.691370010375977,0.6504088044166565,0.48550674319267273,6.302586078643799,-0.36027762293815613,-0.1017724946141243
1242.0,-35.2491340637207,-16.92535972595215,0.7715402841567993,11.098221778869629,0.3653726279735565,0.436057984828949,5.9964985847473145,-0.39650821685791016,-0.06901495903730392
1243.0,-35.24900436401367,-15.590605735778809,0.7691736817359924,11.450960159301758,0.0036009883042424917,0.4987030625343323,5.7125630378723145,-0.4674004912376404,-0.03214982524514198
1244.0,-35.24888610839844,-14.302881240844727,0.7670584917068481,11.717978477478027,-0.4086001217365265,0.42050787806510925,5.417354583740234,-0.49765756726264954,0.009221699088811874
1245.0,-35.248775482177734,-13.06053352355957,0.7651816606521606,12.03586483001709,-0.7009094953536987,0.44164568185806274,5.073728561401367,-0.481906920671463,-0.09693390130996704
1246.0,-35.24867630004883,-11.86196231842041,0.7635274529457092,12.290897369384766,-0.9726577401161194,0.39664700627326965,4.677017688751221,-0.453367680311203,-0.06029915437102318
1247.0,-35.248592376708984,-10.705619812011719,0.7620825171470642,12.586167335510254,-1.223272442817688,0.5233549475669861,4.271007061004639,-0.494001179933548,-0.016874095425009727
1248.0,-35.24851608276367,-9.590020179748535,0.7608309388160706,12.861481666564941,-1.3660353422164917,0.5343746542930603,3.903024435043335,-0.5368165373802185,-0.03713497519493103
1249.0,-35.24844741821289,-8.513729095458984,0.7597558498382568,13.083967208862305,-1.558264970779419,0.5380287766456604,3.4776158332824707,-0.494022399187088,-0.0910426452755928
1250.0,-35.24838638305664,-7.475358009338379,0.7588425278663635,13.255716323852539,-1.735335111618042,0.4848441481590271,3.0686306953430176,-0.528752863407135,-0.07298808544874191
1251.0,-35.24833679199219,-6.47357177734375,0.7580772042274475,13.392423629760742,-1.972396969795227,0.393598347902298,2.6736104488372803,-0.5431858897209167,-0.00956606213003397
1252.0,-35.248294830322266,-5.507082939147949,0.7574459314346313,13.57716178894043,-2.0181920528411865,0.33710500597953796,2.3292839527130127,-0.43779751658439636,-0.03597341105341911
1253.0,-35.248260498046875,-4.574643611907959,0.75693678855896,13.689424514770508,-2.1085617542266846,0.5912280678749084,1.9201098680496216,-0.49464133381843567,0.0029692428652197123
1429.0,-33.272159576416016,-48.749813079833984,0.8328980207443237,4.298337459564209,11.934126853942871,0.456940233707428,2.3986947536468506,0.1220640018582344,-0.18905919790267944
1430.0,-33.27195358276367,-46.29349136352539,0.8312970399856567,4.13238000869751,10.961983680725098,-0.37847912311553955,3.463630199432373,0.13208536803722382,0.042252808809280396
1431.0,-33.271724700927734,-43.92374038696289,0.8283690810203552,4.514064788818359,10.031859397888184,0.2853832542896271,4.389625549316406,0.030288919806480408,-0.16839788854122162
1432.0,-33.271480560302734,-41.637516021728516,0.8244209885597229,4.431648254394531,9.027863502502441,-0.33360055088996887,5.019092082977295,0.044810958206653595,0.032318443059921265
1433.0,-33.271236419677734,-39.43186569213867,0.8197407722473145,4.744985580444336,8.140219688415527,0.14358876645565033,5.57255220413208,0.06311708688735962,-0.1854040026664734
1434.0,-33.270992279052734,-37.303955078125,0.8145665526390076,4.806526184082031,7.1925272941589355,-0.31232795119285583,6.002734661102295,0.011741830967366695,0.05739078298211098
1435.0,-33.270748138427734,-35.25103759765625,0.8091020584106445,5.262594699859619,6.408046245574951,0.04243095964193344,6.450774669647217,-0.040508706122636795,-0.12386666238307953
1436.0,-33.270503997802734,-33.27047348022461,0.8035014867782593,5.447505474090576,5.511997699737549,-0.34112095832824707,6.789427757263184,-0.017660871148109436,-0.0005319935735315084
1437.0,-33.270259857177734,-31.359708786010742,0.7978969216346741,5.91178560256958,4.755970478057861,-0.024864614009857178,7.0480852127075195,-0.02649194374680519,-0.14550966024398804
1438.0,-33.27001953125,-29.51628303527832,0.7923922538757324,6.163371562957764,4.006290435791016,-0.31403425335884094,7.282498359680176,-0.06690815091133118,-0.04674551263451576
1439.0,-33.269779205322266,-27.737825393676758,0.787068247795105,6.578171730041504,3.335813283920288,-0.14405928552150726,7.390501976013184,-0.10137761384248734,-0.051057275384664536
1440.0,-33.26955795288086,-26.022045135498047,0.7819796204566956,6.865828990936279,2.577924966812134,-0.31525513529777527,7.4395341873168945,-0.10836686193943024,-0.0757862851023674
1441.0,-33.26933288574219,-24.366727828979492,0.7771704196929932,7.256657600402832,1.7998228073120117,-0.23447397351264954,7.483524799346924,-0.09060872346162796,-0.0799420103430748
1442.0,-33.26912307739258,-22.769746780395508,0.7726720571517944,7.67872953414917,1.224711537361145,-0.32925400137901306,7.352344036102295,-0.06746996194124222,-0.022474782541394234
1443.0,-33.2689323425293,-21.229047775268555,0.7684999108314514,8.093890190124512,0.5338637828826904,-0.27594396471977234,7.168038368225098,-0.08380626142024994,-0.13753165304660797
1444.0,-33.26875686645508,-19.742639541625977,0.7646623253822327,8.465511322021484,-0.0023897888604551554,-0.33727195858955383,6.930279731750488,-0.13797761499881744,-0.08353187143802643
1445.0,-33.26858901977539,-18.308610916137695,0.7611638307571411,8.699459075927734,-0.7192138433456421,-0.3246648609638214,6.704255104064941,-0.12753476202487946,-0.14230455458164215
1446.0,-33.268436431884766,-16.925119400024414,0.7579987049102783,9.04410457611084,-1.0440131425857544,-0.3673751652240753,6.410269737243652,-0.1068485900759697,-0.06527592986822128
1447.0,-33.26829528808594,-15.590375900268555,0.7551535367965698,9.361443519592285,-1.6212893724441528,-0.3381306529045105,6.113245010375977,-0.12336189299821854,-0.01734057255089283
1448.0,-33.26816177368164,-14.302665710449219,0.7526143789291382,9.637091636657715,-2.0835444927215576,-0.39454978704452515,5.826982498168945,-0.09970739483833313,-0.09437830001115799
1449.0,-33.26805114746094,-13.060332298278809,0.750365674495697,9.922454833984375,-2.394989252090454,-0.3328566253185272,5.466136455535889,-0.11942858248949051,-0.10510629415512085
1450.0,-33.267940521240234,-11.861772537231445,0.7483882308006287,10.056035041809082,-2.9378461837768555,-0.4232216477394104,5.065593242645264,-0.2058473527431488,-0.015383748337626457
1451.0,-33.26784896850586,-10.705448150634766,0.7466641664505005,10.336913108825684,-3.2264785766601562,-0.3534521758556366,4.664541721343994,-0.274572491645813,-0.09501545876264572
1452.0,-33.267765045166016,-9.589865684509277,0.7451744675636292,10.514273643493652,-3.4520106315612793,-0.4675789475440979,4.241736888885498,-0.3066619336605072,-0.07474761456251144
1453.0,-33.267696380615234,-8.513588905334473,0.7438978552818298,10.68044376373291,-3.7187600135803223,-0.3724209666252136,3.7973363399505615,-0.2671789824962616,-0.09322421252727509
1454.0,-33.267635345458984,-7.4752349853515625,0.7428146004676819,10.823386192321777,-3.9177892208099365,-0.34491685032844543,3.3457159996032715,-0.1998063623905182,-0.05674732103943825
1455.0,-33.267578125,-6.473465442657471,0.7419084310531616,10.880733489990234,-4.1651692390441895,-0.35173889994621277,2.9061567783355713,-0.17502230405807495,-0.002719199052080512
1456.0,-33.26752853393555,-5.506991863250732,0.7411627173423767,11.006437301635742,-4.14493989944458,-0.2146168053150177,2.4861345291137695,-0.21078971028327942,-0.0525936484336853
1633.0,-31.36147689819336,-48.749786376953125,0.8327999114990234,4.867984294891357,13.7510986328125,0.5165134072303772,2.512399435043335,0.10321985930204391,-0.28630778193473816
1634.0,-31.36125373840332,-46.29341125488281,0.8308550119400024,4.397529125213623,12.368789672851562,-0.4323122799396515,3.6019952297210693,0.12441884726285934,0.026132510975003242
1635.0,-31.361019134521484,-43.92361831665039,0.8273292779922485,4.622674942016602,11.294112205505371,0.3516623377799988,4.578414440155029,0.03700864315032959,-0.24877837300300598
1636.0,-31.360761642456055,-41.63735580444336,0.8226137161254883,4.358070373535156,10.093169212341309,-0.3109101355075836,5.191311359405518,0.025383712723851204,0.007570017594844103
1637.0,-31.360506057739258,-39.43167495727539,0.8170567750930786,4.618450164794922,9.05303955078125,0.3735246956348419,5.75252103805542,0.005815702490508556,-0.17638908326625824
1638.0,-31.360248565673828,-37.30374526977539,0.8109360933303833,4.50637674331665,7.901217937469482,-0.1911529004573822,6.211071014404297,-0.06389319896697998,0.05989629030227661
1639.0,-31.35999870300293,-35.25080490112305,0.8044877052307129,4.836441516876221,7.0440673828125,0.2857964336872101,6.696723461151123,-0.10166628658771515,-0.1678817868232727
1640.0,-31.3597412109375,-33.27022171020508,0.797889769077301,4.8344645500183105,6.001518726348877,-0.017566295340657234,7.0537004470825195,-0.1251348853111267,0.012390770018100739
1641.0,-31.35948371887207,-31.35944938659668,0.7912964224815369,5.074832439422607,4.958916187286377,0.28991684317588806,7.350447654724121,-0.1641857773065567,-0.14860917627811432
1642.0,-31.359233856201172,-29.516021728515625,0.7848308086395264,5.136478900909424,4.084503173828125,-0.015838412567973137,7.577586650848389,-0.1638527661561966,-0.09064299613237381
1643.0,-31.358989715576172,-27.737552642822266,0.7785840630531311,5.471360206604004,3.362504720687866,0.3165316879749298,7.721686840057373,-0.2049093395471573,-0.12191414088010788
1644.0,-31.358747482299805,-26.021772384643555,0.772618293762207,5.579824447631836,2.4064407348632812,0.11931009590625763,7.725680351257324,-0.2393251657485962,-0.10326891392469406
1645.0,-31.358516693115234,-24.366456985473633,0.7669853568077087,5.895142555236816,1.639838457107544,0.35676097869873047,7.807797431945801,-0.2703613340854645,-0.188704252243042
1646.0,-31.358293533325195,-22.76948356628418,0.7617223262786865,6.073039531707764,0.8152156472206116,0.157515749335289,7.671723365783691,-0.3168230354785919,-0.11580051481723785
1647.0,-31.358091354370117,-21.228782653808594,0.7568494081497192,6.424849987030029,0.1351804882287979,0.35721319913864136,7.51320219039917,-0.3199012577533722,-0.1554022580385208
1648.0,-31.35789680480957,-19.742380142211914,0.7523736357688904,6.627864360809326,-0.7088015079498291,0.17924346029758453,7.266910552978516,-0.324022501707077,-0.08923450112342834
1649.0,-31.357725143432617,-18.30836296081543,0.7482999563217163,6.947777271270752,-1.447067141532898,0.29272663593292236,7.013206958770752,-0.3235531151294708,-0.0724421814084053
1650.0,-31.357561111450195,-16.92487907409668,0.7446227669715881,7.24660062789917,-1.9500447511672974,0.2993934452533722,6.725601673126221,-0.3756335973739624,-0.07552626729011536
1651.0,-31.357418060302734,-15.590147018432617,0.7413251399993896,7.4693684577941895,-2.5971834659576416,0.344666987657547,6.416027545928955,-0.43175798654556274,-0.11262337863445282
1652.0,-31.357280731201172,-14.302446365356445,0.7383888959884644,7.655083179473877,-3.1759047508239746,0.2985086143016815,6.095859050750732,-0.3790557086467743,-0.10129130631685257
1653.0,-31.357149124145508,-13.060128211975098,0.735795259475708,7.894385814666748,-3.644824504852295,0.3971507251262665,5.684395790100098,-0.39563778042793274,-0.08673877269029617
1654.0,-31.357038497924805,-11.861586570739746,0.733522355556488,8.028075218200684,-4.215337753295898,0.3333786129951477,5.283279895782471,-0.47166872024536133,-0.058823827654123306
1655.0,-31.356935501098633,-10.705275535583496,0.7315464615821838,8.24108600616455,-4.607024669647217,0.41917163133621216,4.888189315795898,-0.454313725233078,-0.12348274886608124
1656.0,-31.356843948364258,-9.589707374572754,0.7298441529273987,8.399971008300781,-4.8692402839660645,0.3212839365005493,4.420829772949219,-0.4266660511493683,-0.06157737225294113
1657.0,-31.356767654418945,-8.513449668884277,0.7283904552459717,8.526577949523926,-5.251354694366455,0.3248516619205475,3.966972589492798,-0.4598584771156311,-0.035960614681243896
1658.0,-31.35670280456543,-7.475111961364746,0.7271608710289001,8.60750675201416,-5.524474620819092,0.2896673381328583,3.4807686805725098,-0.4763140380382538,-0.0641985833644867
1659.0,-31.356643676757812,-6.473357677459717,0.726134717464447,8.647164344787598,-5.843547821044922,0.1894526183605194,3.0726065635681152,-0.40140512585639954,-0.09964413195848465
1660.0,-31.356595993041992,-5.506899833679199,0.7252927422523499,8.890547752380371,-5.843226432800293,0.22503212094306946,2.6393845081329346,-0.38198307156562805,-0.09604495018720627
1837.0,-29.51810073852539,-48.749759674072266,0.8327039480209351,5.4924092292785645,15.55372428894043,0.6085703372955322,2.5998342037200928,0.12140452116727829,-0.32129979133605957
1838.0,-29.517881393432617,-46.293331146240234,0.8304201364517212,4.774881362915039,13.81580924987793,-0.48912313580513,3.6652848720550537,0.10604836046695709,0.04926555976271629
1839.0,-29.517627716064453,-43.92349624633789,0.8263044953346252,4.774019718170166,12.525747299194336,0.3522756099700928,4.670338153839111,0.017688842490315437,-0.3271125853061676
1840.0,-29.517366409301758,-41.637203216552734,0.8208308219909668,4.2070746421813965,11.031088829040527,-0.4668594002723694,5.290835857391357,0.029116179794073105,0.03319326043128967
1841.0,-29.517107009887695,-39.43149185180664,0.8144087195396423,4.316490650177002,9.769469261169434,0.2791120111942291,5.900821208953857,-0.02250261791050434,-0.25127264857292175
1842.0,-29.516843795776367,-37.303531646728516,0.8073572516441345,4.0729193687438965,8.505263328552246,-0.2994554340839386,6.393022537231445,-0.0238758847117424,-0.06006461754441261
1843.0,-29.51657485961914,-35.25057601928711,0.7999434471130371,4.2526774406433105,7.505382537841797,0.13655565679073334,6.853438854217529,-0.04253469407558441,-0.22726823389530182
1844.0,-29.516313552856445,-33.26998519897461,0.7923699021339417,4.077020168304443,6.246384620666504,-0.32947930693626404,7.2378339767456055,-0.0960458368062973,0.002080577192828059
1845.0,-29.516050338745117,-31.359195709228516,0.7848148941993713,4.204579830169678,5.036738872528076,0.04092537239193916,7.555908203125,-0.07934213429689407,-0.18038643896579742
1846.0,-29.515790939331055,-29.515762329101562,0.7774171233177185,4.155663967132568,4.010180950164795,-0.27893415093421936,7.785059928894043,-0.03809863328933716,-0.10864603519439697
1847.0,-29.515535354614258,-27.73729133605957,0.7702746987342834,4.34391450881958,3.1098856925964355,0.010725663043558598,7.95247745513916,-0.0656869038939476,-0.2020123302936554
1848.0,-29.515287399291992,-26.02151107788086,0.763460099697113,4.270801067352295,2.034745931625366,-0.3325013816356659,8.012503623962402,-0.1066867783665657,-0.1398034244775772
1849.0,-29.515047073364258,-24.366191864013672,0.7570346593856812,4.457365036010742,1.1241041421890259,-0.08615206927061081,8.14379596710205,-0.1014428660273552,-0.20434711873531342
1850.0,-29.51481819152832,-22.76921272277832,0.7510397434234619,4.472263336181641,0.08335956931114197,-0.3734953701496124,8.036484718322754,-0.10867065191268921,-0.10623623430728912
1851.0,-29.514602661132812,-21.228517532348633,0.7454992532730103,4.796200275421143,-0.7068707942962646,-0.13614024221897125,7.836611747741699,-0.16186831891536713,-0.15697604417800903
1852.0,-29.514404296875,-19.742124557495117,0.7404202818870544,4.891104221343994,-1.713217854499817,-0.2891422510147095,7.564171314239502,-0.1502886265516281,-0.11471783369779587
1853.0,-29.51422119140625,-18.308115005493164,0.7358070015907288,5.10014009475708,-2.5242834091186523,-0.17772835493087769,7.282355308532715,-0.14796198904514313,-0.11987195909023285
1854.0,-29.51405143737793,-16.924638748168945,0.7316550016403198,5.181737899780273,-3.3748037815093994,-0.3971565365791321,7.015786170959473,-0.2133045345544815,-0.13925009965896606
1855.0,-29.513896942138672,-15.589920043945312,0.7279438972473145,5.478092670440674,-3.9718985557556152,-0.24635551869869232,6.711822986602783,-0.19295372068881989,-0.1584407240152359
1856.0,-29.513750076293945,-14.30223274230957,0.7246503829956055,5.584854602813721,-4.72914457321167,-0.34839776158332825,6.382452011108398,-0.16578282415866852,-0.07045426219701767
1857.0,-29.513612747192383,-13.059928894042969,0.7217519283294678,5.738555431365967,-5.426313400268555,-0.3005736768245697,5.99556303024292,-0.2042105346918106,-0.09394204616546631
1858.0,-29.513492584228516,-11.86140251159668,0.7192230224609375,5.931117534637451,-5.913177013397217,-0.351500004529953,5.599487781524658,-0.223423570394516,-0.11251812428236008
1859.0,-29.513383865356445,-10.705102920532227,0.717034101486206,6.153221130371094,-6.379948139190674,-0.25603795051574707,5.197041034698486,-0.20115838944911957,-0.060452722012996674
1860.0,-29.513288497924805,-9.589552879333496,0.7151552438735962,6.288402080535889,-6.776579856872559,-0.3601238429546356,4.714910984039307,-0.16190136969089508,0.032323483377695084
1861.0,-29.513200759887695,-8.513309478759766,0.7135586142539978,6.393711566925049,-7.1922221183776855,-0.3082597255706787,4.221737384796143,-0.1811051219701767,-0.014863328076899052
1862.0,-29.51313591003418,-7.474987030029297,0.7122140526771545,6.575440406799316,-7.330780506134033,-0.18310056626796722,3.7028064727783203,-0.2740034759044647,-0.09344671666622162
1863.0,-29.51307487487793,-6.47324800491333,0.7110958695411682,6.53739595413208,-7.751832008361816,-0.2400144338607788,3.278118133544922,-0.24435673654079437,-0.08512507379055023
1864.0,-29.51302719116211,-5.506805419921875,0.7101823091506958,6.566784381866455,-7.929069995880127,-0.10852981358766556,2.8339438438415527,-0.19387315213680267,-0.019196445122361183
1865.0,-29.512983322143555,-4.574413299560547,0.7094501852989197,6.456702709197998,-8.251705169677734,-0.3923434615135193,2.294755697250366,-0.28709712624549866,-0.05405941233038902
2041.0,-27.73967170715332,-48.74972915649414,0.8326115012168884,5.992030620574951,17.235044479370117,0.5871405005455017,2.6798882484436035,0.0997551679611206,-0.34308508038520813
2042.0,-27.739444732666016,-46.293251037597656,0.8299986124038696,5.100353717803955,15.245416641235352,-0.5150519013404846,3.7122552394866943,0.06554972380399704,0.0339307002723217
2043.0,-27.739194869995117,-43.92337417602539,0.8253101706504822,4.992210388183594,13.763367652893066,0.5037114024162292,4.7262959480285645,-0.01896562986075878,-0.3981309235095978
2044.0,-27.738933563232422,-41.63705062866211,0.8191004991531372,4.213266372680664,12.033502578735352,-0.41379308700561523,5.335358142852783,0.013710938394069672,-0.0021847097668796778
2045.0,-27.738664627075195,-39.43130874633789,0.8118377923965454,4.179641246795654,10.624711036682129,0.44544464349746704,5.9513020515441895,-0.012152578681707382,-0.31078508496284485
2046.0,-27.738399505615234,-37.30332946777344,0.803883969783783,3.6584720611572266,9.200417518615723,-0.20886172354221344,6.46860933303833,-0.07152599096298218,-0.0978396013379097
2047.0,-27.738126754760742,-35.250362396240234,0.7955354452133179,3.7002851963043213,8.067183494567871,0.41512367129325867,6.9464311599731445,-0.1212584525346756,-0.35671064257621765
2048.0,-27.73785400390625,-33.26974868774414,0.7870225310325623,3.3308253288269043,6.638533592224121,-0.14423181116580963,7.343059062957764,-0.11151164025068283,-0.11501681059598923
2049.0,-27.73758316040039,-31.358951568603516,0.778545618057251,3.381714105606079,5.336028099060059,0.3297487497329712,7.634762287139893,-0.1322082132101059,-0.2371508777141571
2050.0,-27.737319946289062,-29.515506744384766,0.7702527642250061,3.2241320610046387,4.181217193603516,0.0020649246871471405,7.905177116394043,-0.164446160197258,-0.0911889374256134
2051.0,-27.737060546875,-27.73703384399414,0.7622538805007935,3.223562002182007,3.1364188194274902,0.30153611302375793,8.067191123962402,-0.20788206160068512,-0.24315308034420013
2052.0,-27.736804962158203,-26.021244049072266,0.7546336650848389,3.0790014266967773,2.064714193344116,0.07561380416154861,8.199576377868652,-0.23832140862941742,-0.0811319425702095
2053.0,-27.736568450927734,-24.36593246459961,0.7474603056907654,3.1419622898101807,0.8841014504432678,0.28192225098609924,8.283394813537598,-0.17991866171360016,-0.0990641638636589
2054.0,-27.736328125,-22.76895523071289,0.7407785654067993,3.1384356021881104,-0.15165619552135468,0.10882705450057983,8.244915008544922,-0.24098089337348938,-0.03311099484562874
2055.0,-27.736101150512695,-21.228261947631836,0.7346158027648926,3.278066635131836,-1.1780242919921875,0.29822230339050293,8.099242210388184,-0.36307084560394287,-0.15265212953090668
2056.0,-27.735897064208984,-19.741872787475586,0.7289806008338928,3.2495923042297363,-2.2885873317718506,0.12260527163743973,7.907183647155762,-0.2972080409526825,-0.16493338346481323
2057.0,-27.73570442199707,-18.30786895751953,0.723876953125,3.4122846126556396,-3.2302210330963135,0.29892656207084656,7.654768943786621,-0.3009469211101532,-0.20447196066379547
2058.0,-27.735523223876953,-16.924402236938477,0.7192983031272888,3.4642434120178223,-4.172606945037842,0.17443609237670898,7.399181842803955,-0.3866141140460968,-0.11783676594495773
2059.0,-27.735355377197266,-15.589693069458008,0.7152233123779297,3.6342625617980957,-4.9728474617004395,0.3840532898902893,7.062958240509033,-0.3350592255592346,-0.16991256177425385
2060.0,-27.73520278930664,-14.302019119262695,0.7116221189498901,3.700836420059204,-5.753252029418945,0.26023030281066895,6.698428630828857,-0.3274167478084564,-0.16266648471355438
2061.0,-27.735063552856445,-13.059728622436523,0.7084683775901794,3.761993169784546,-6.673689842224121,0.3246169984340668,6.301478862762451,-0.4032748341560364,-0.10281683504581451
2062.0,-27.734939575195312,-11.861213684082031,0.7057328224182129,3.917146921157837,-7.0973896980285645,0.33625128865242004,5.891088485717773,-0.4467913806438446,-0.06606721132993698
2063.0,-27.734819412231445,-10.70493221282959,0.7033791542053223,3.922351360321045,-7.853672027587891,0.25393858551979065,5.466442108154297,-0.4108108878135681,-0.04158728942275047
2064.0,-27.73471450805664,-9.589394569396973,0.7013716101646423,4.127978801727295,-8.189223289489746,0.3791917562484741,4.943178176879883,-0.32697954773902893,-0.03956425562500954
2065.0,-27.73463249206543,-8.513167381286621,0.6996753215789795,4.18773889541626,-8.702607154846191,0.3059002161026001,4.438724040985107,-0.2827574908733368,-0.03874729946255684
2066.0,-27.734556198120117,-7.474860191345215,0.6982565522193909,4.3244452476501465,-8.986027717590332,0.2543991804122925,3.912161111831665,-0.35527127981185913,0.023107068613171577
2067.0,-27.734493255615234,-6.4731364250183105,0.6970840096473694,4.384145736694336,-9.412773132324219,0.1478288769721985,3.4046285152435303,-0.39341139793395996,0.02974790520966053
2068.0,-27.73443603515625,-5.506710052490234,0.6961308121681213,4.320938587188721,-9.882610321044922,-0.08125118166208267,2.924325704574585,-0.3743230998516083,0.03618757426738739
2245.0,-26.02389907836914,-48.749698638916016,0.8325234651565552,6.508101940155029,18.90523338317871,0.6145641207695007,2.7300264835357666,0.08273142576217651,-0.39528900384902954
2246.0,-26.023670196533203,-46.29317855834961,0.8295955061912537,5.401310920715332,16.638219833374023,-0.5673142075538635,3.718343496322632,0.12405217438936234,-0.006476425565779209
2247.0,-26.023422241210938,-43.92326354980469,0.8243581056594849,5.0936503410339355,14.863363265991211,0.5164129734039307,4.737377643585205,0.07588701695203781,-0.43343546986579895
2248.0,-26.02315902709961,-41.63690185546875,0.8174437880516052,4.065895080566406,12.879273414611816,-0.5313246250152588,5.38619327545166,0.03699587658047676,-0.05119514837861061
2249.0,-26.022890090942383,-39.4311408996582,0.80937659740448,3.9458353519439697,11.359146118164062,0.4094613194465637,6.022475242614746,0.0416119359433651,-0.30878230929374695
2250.0,-26.022615432739258,-37.30314254760742,0.8005584478378296,3.220579147338867,9.743205070495605,-0.44744277000427246,6.512271404266357,-0.0299623291939497,-0.04407840594649315
2251.0,-26.022342681884766,-35.250152587890625,0.7913175225257874,3.0852203369140625,8.377833366394043,0.1608453392982483,6.976318836212158,-0.10365433990955353,-0.3609623908996582
2252.0,-26.022075653076172,-33.269527435302734,0.7819122076034546,2.6261980533599854,6.871296405792236,-0.38329240679740906,7.3965959548950195,-0.05058366805315018,-0.12364376336336136
2253.0,-26.021800994873047,-31.358720779418945,0.7725582122802734,2.604673385620117,5.544589042663574,0.17768944799900055,7.698443412780762,-0.0793616846203804,-0.25964322686195374
2254.0,-26.021530151367188,-29.515270233154297,0.7634157538414001,2.0923540592193604,4.139338970184326,-0.362371563911438,7.975110054016113,-0.11182724684476852,-0.09100966155529022
2255.0,-26.021268844604492,-27.736787796020508,0.7546101808547974,1.9784319400787354,2.910950183868408,-0.06572616845369339,8.134360313415527,-0.0978047326207161,-0.2525283992290497
2256.0,-26.021013259887695,-26.020998001098633,0.7462359070777893,1.8337515592575073,1.7833510637283325,-0.25286850333213806,8.293839454650879,-0.09277301281690598,-0.07018166035413742
2257.0,-26.020763397216797,-24.365676879882812,0.7383660078048706,1.674062967300415,0.4218294322490692,-0.1374010443687439,8.400924682617188,-0.07043296843767166,-0.19442537426948547
2258.0,-26.02052116394043,-22.76870346069336,0.7310499548912048,1.5144377946853638,-0.6883784532546997,-0.32176676392555237,8.44880199432373,-0.11876283586025238,-0.11212993413209915
2259.0,-26.02029037475586,-21.228010177612305,0.7243193984031677,1.626083493232727,-1.8358651399612427,-0.08263494819402695,8.344632148742676,-0.18182112276554108,-0.1766575574874878
2260.0,-26.020076751708984,-19.74162483215332,0.7181847095489502,1.5621567964553833,-3.109281301498413,-0.2476973831653595,8.077279090881348,-0.18535766005516052,-0.1585835963487625
2261.0,-26.01987075805664,-18.30762481689453,0.7126479744911194,1.6279886960983276,-4.257862091064453,-0.0687130019068718,7.846691608428955,-0.22196067869663239,-0.1550406664609909
2262.0,-26.01968765258789,-16.924165725708008,0.7077006697654724,1.6728209257125854,-5.293777942657471,-0.27249932289123535,7.570232391357422,-0.22812320291996002,-0.08698969334363937
2263.0,-26.01951789855957,-15.589468002319336,0.7033202648162842,1.763887643814087,-6.30914306640625,-0.173514723777771,7.2587690353393555,-0.18176938593387604,-0.10923729836940765
2264.0,-26.019359588623047,-14.30180549621582,0.6994727849960327,1.7927086353302002,-7.150569438934326,-0.225669726729393,6.932232856750488,-0.19611956179141998,-0.11524611711502075
2265.0,-26.01921272277832,-13.059526443481445,0.6961243152618408,1.7456061840057373,-8.232771873474121,-0.2848632037639618,6.56527042388916,-0.26248517632484436,-0.1070062443614006
2266.0,-26.019075393676758,-11.861024856567383,0.6932417154312134,1.9116355180740356,-8.821613311767578,-0.25584399700164795,6.1336588859558105,-0.2806820869445801,-0.004584789741784334
2267.0,-26.018953323364258,-10.704758644104004,0.6907830238342285,1.9181363582611084,-9.568477630615234,-0.28360727429389954,5.668427467346191,-0.2678016424179077,-0.08678806573152542
2268.0,-26.01884651184082,-9.589237213134766,0.6887034177780151,1.930400013923645,-10.10950756072998,-0.3085153102874756,5.155101299285889,-0.2962939441204071,-0.1505945920944214
2269.0,-26.018753051757812,-8.513023376464844,0.6869630217552185,2.009864568710327,-10.54831600189209,-0.19043996930122375,4.611454010009766,-0.29682299494743347,-0.10154878348112106
2270.0,-26.018672943115234,-7.474731922149658,0.6855221390724182,1.9743860960006714,-11.116571426391602,-0.27040258049964905,4.084133625030518,-0.24663686752319336,-0.057894475758075714
2271.0,-26.01860237121582,-6.473025798797607,0.6843419671058655,2.159562826156616,-11.289793968200684,0.01570977084338665,3.5264394283294678,-0.2679940164089203,-0.03902385011315346
2272.0,-26.018550872802734,-5.506615161895752,0.6833902597427368,2.1682119369506836,-11.643181800842285,0.04080137982964516,3.0307836532592773,-0.3346436321735382,-0.09435243159532547
2449.0,-24.36857795715332,-48.749671936035156,0.8324412703514099,7.027438640594482,20.53308868408203,0.6948875784873962,2.7428228855133057,0.12966777384281158,-0.43080049753189087
2450.0,-24.368349075317383,-46.29310607910156,0.8292158842086792,5.701114177703857,17.97064971923828,-0.6095985770225525,3.658885955810547,0.14696688950061798,-0.0387876033782959
2451.0,-24.368101119995117,-43.923152923583984,0.8234581351280212,5.280786037445068,15.958528518676758,0.5801496505737305,4.647913455963135,0.09875590354204178,-0.4293520152568817
2452.0,-24.367841720581055,-41.63676071166992,0.8158754706382751,4.059001445770264,13.788293838500977,-0.530642569065094,5.2979583740234375,0.09413763880729675,-0.035520076751708984
2453.0,-24.367570877075195,-39.430973052978516,0.8070462942123413,3.7489030361175537,12.099584579467773,0.4555759131908417,5.946171760559082,0.01037551462650299,-0.364899218082428
2454.0,-24.367298126220703,-37.30295944213867,0.7974105477333069,2.9176440238952637,10.38676929473877,-0.35352638363838196,6.44281005859375,-0.039474472403526306,-0.0881718322634697
2455.0,-24.367027282714844,-35.24995040893555,0.7873292565345764,2.7361016273498535,8.936870574951172,0.41587668657302856,6.9465837478637695,-0.07550820708274841,-0.25666511058807373
2456.0,-24.36675262451172,-33.26931381225586,0.7770834565162659,1.9985740184783936,7.27302885055542,-0.22551201283931732,7.396956920623779,-0.10238765180110931,-0.038750555366277695
2457.0,-24.366477966308594,-31.35849380493164,0.7669045925140381,1.7187434434890747,5.804903030395508,0.26414987444877625,7.6902313232421875,-0.19403642416000366,-0.2699579894542694
2458.0,-24.3662109375,-29.515031814575195,0.7569679617881775,1.24854576587677,4.447638034820557,-0.03934583440423012,7.943226337432861,-0.24000272154808044,-0.14556653797626495
2459.0,-24.365949630737305,-27.73654556274414,0.7474122047424316,1.0630912780761719,3.079923629760742,0.3763773441314697,8.202729225158691,-0.1409088373184204,-0.28849127888679504
2460.0,-24.365692138671875,-26.020751953125,0.7383407950401306,0.6512315273284912,1.8060873746871948,0.05729066580533981,8.384367942810059,-0.11895257979631424,-0.1237596794962883
2461.0,-24.365440368652344,-24.36543083190918,0.7298324108123779,0.42917943000793457,0.4355277717113495,0.3418128788471222,8.550849914550781,-0.1975407749414444,-0.32416102290153503
2462.0,-24.365192413330078,-22.768449783325195,0.7219417095184326,0.11362642794847488,-0.9598597288131714,0.04513668641448021,8.579071998596191,-0.20478010177612305,-0.2045517861843109
2463.0,-24.364957809448242,-21.227766036987305,0.7147042751312256,0.06666303426027298,-2.2257115840911865,0.3349931538105011,8.501032829284668,-0.21653878688812256,-0.18685521185398102
2464.0,-24.364734649658203,-19.74138069152832,0.7081326246261597,-0.1838395744562149,-3.6703011989593506,0.08322816342115402,8.233268737792969,-0.28281715512275696,-0.11370617151260376
2465.0,-24.364532470703125,-18.30738639831543,0.7022276520729065,-0.26218152046203613,-5.064767837524414,0.23086859285831451,8.10960865020752,-0.2891101837158203,-0.12512600421905518
2466.0,-24.364336013793945,-16.92393684387207,0.6969789862632751,-0.3110617399215698,-6.194065570831299,0.0960208848118782,7.853221416473389,-0.2387392818927765,-0.12376688420772552
2467.0,-24.36416244506836,-15.589247703552246,0.6923614740371704,-0.31155136227607727,-7.311790943145752,0.19203640520572662,7.488808631896973,-0.2842644453048706,-0.11827348917722702
2468.0,-24.363996505737305,-14.301595687866211,0.6883372068405151,-0.29888609051704407,-8.262019157409668,0.26627489924430847,7.1494598388671875,-0.3947644531726837,-0.08563089370727539
2469.0,-24.363842010498047,-13.059325218200684,0.6848649978637695,-0.35749346017837524,-9.350715637207031,0.22316373884677887,6.8074951171875,-0.4138292670249939,-0.14218415319919586
2470.0,-24.36369514465332,-11.860837936401367,0.6819067001342773,-0.4142482876777649,-10.328703880310059,0.11005689203739166,6.400130748748779,-0.3482016921043396,0.008009460754692554
2471.0,-24.363569259643555,-10.704583168029785,0.6794134378433228,-0.2423645555973053,-10.899715423583984,0.32837018370628357,5.913081645965576,-0.3264268636703491,-0.14479868113994598
2472.0,-24.36345672607422,-9.589077949523926,0.677329957485199,-0.2522416412830353,-11.63187313079834,0.15046311914920807,5.414841175079346,-0.3485903739929199,-0.13259999454021454
2473.0,-24.36335563659668,-8.512879371643066,0.6756105422973633,-0.12749338150024414,-12.211257934570312,0.20520497858524323,4.851199626922607,-0.38213589787483215,-0.03692701831459999
2474.0,-24.36326789855957,-7.474605083465576,0.6742088794708252,-0.2018585354089737,-12.851853370666504,0.08755654841661453,4.252134323120117,-0.36745256185531616,-0.08990544080734253
2475.0,-24.363197326660156,-6.472915172576904,0.6730778217315674,-0.20060381293296814,-13.158974647521973,0.06950122863054276,3.7150423526763916,-0.3828122317790985,-0.13884012401103973
2476.0,-24.363136291503906,-5.506519317626953,0.6721788048744202,-0.3531798720359802,-13.695352554321289,-0.2598109543323517,3.186267375946045,-0.4692215919494629,-0.09158232808113098
2653.0,-22.771574020385742,-48.749656677246094,0.8323640823364258,7.401909828186035,22.007646560668945,0.6971727013587952,2.7194764614105225,0.09450941532850266,-0.4371471703052521
2654.0,-22.771345138549805,-46.293033599853516,0.8288597464561462,5.8246002197265625,19.14984893798828,-0.7006077170372009,3.5967843532562256,0.07692787051200867,-0.03890672326087952
2655.0,-22.771102905273438,-43.923057556152344,0.8226135969161987,5.330779552459717,16.9213924407959,0.5980970859527588,4.559183597564697,0.037305865436792374,-0.43365174531936646
2656.0,-22.770845413208008,-41.636627197265625,0.8144045472145081,4.044348239898682,14.648697853088379,-0.5657864212989807,5.21808385848999,0.04643335938453674,-0.023608867079019547
2657.0,-22.770580291748047,-39.43082046508789,0.8048611283302307,3.6948201656341553,12.843636512756348,0.46277087926864624,5.878523826599121,-0.034611936658620834,-0.39276859164237976
2658.0,-22.77031135559082,-37.30278015136719,0.7944594025611877,2.656968832015991,10.983597755432129,-0.4047646224498749,6.361988544464111,-0.04996369779109955,-0.12051623314619064
2659.0,-22.770042419433594,-35.249759674072266,0.783592164516449,2.2340095043182373,9.33338451385498,0.3287874758243561,6.869288444519043,-0.06782466918230057,-0.30382418632507324
2660.0,-22.769771575927734,-33.26911544799805,0.7725619673728943,1.3908528089523315,7.614483833312988,-0.339418888092041,7.311722278594971,-0.08678042888641357,-0.0888785868883133
2661.0,-22.769498825073242,-31.358280181884766,0.761617124080658,1.0455533266067505,6.100986957550049,0.2276332527399063,7.659584999084473,-0.09470570087432861,-0.29031887650489807
2662.0,-22.769227981567383,-29.514814376831055,0.7509475350379944,0.29587435722351074,4.52579927444458,-0.295431524515152,7.9004292488098145,-0.10410899668931961,-0.1858401596546173
2663.0,-22.76896858215332,-27.736324310302734,0.7407037019729614,-0.1254369616508484,2.9768826961517334,0.042184773832559586,8.20748233795166,-0.07409840822219849,-0.34246036410331726
2664.0,-22.768714904785156,-26.020519256591797,0.7309976816177368,-0.6725836396217346,1.5795546770095825,-0.35438835620880127,8.346638679504395,-0.058721330016851425,-0.14347414672374725
2665.0,-22.768463134765625,-24.365190505981445,0.7219147682189941,-0.9504180550575256,0.10168498009443283,-0.012901052832603455,8.555458068847656,-0.11544834077358246,-0.2575037479400635
2666.0,-22.768217086791992,-22.768211364746094,0.7135148644447327,-1.4151533842086792,-1.4476927518844604,-0.29419568181037903,8.628203392028809,-0.17435835301876068,-0.16395260393619537
2667.0,-22.767976760864258,-21.227523803710938,0.7058374881744385,-1.6862382888793945,-2.9324464797973633,-0.05103541165590286,8.636492729187012,-0.196926087141037,-0.18525713682174683
2668.0,-22.767749786376953,-19.74114227294922,0.698898196220398,-1.9566190242767334,-4.4203925132751465,-0.30287086963653564,8.414368629455566,-0.21956738829612732,-0.12302444875240326
2669.0,-22.767539978027344,-18.307153701782227,0.6926966309547424,-2.066979169845581,-5.963798999786377,-0.09391439706087112,8.245830535888672,-0.23215295374393463,-0.19018909335136414
2670.0,-22.76734161376953,-16.923707962036133,0.6872193813323975,-2.2710258960723877,-7.181229591369629,-0.22297681868076324,8.06558895111084,-0.23238922655582428,-0.09273284673690796
2671.0,-22.767152786254883,-15.589021682739258,0.6824393272399902,-2.3482472896575928,-8.48537540435791,-0.19287264347076416,7.7982707023620605,-0.2490616887807846,-0.1316271871328354
2672.0,-22.76698112487793,-14.30137825012207,0.6783152222633362,-2.368166208267212,-9.631478309631348,-0.14399217069149017,7.469939708709717,-0.2527124881744385,-0.13167355954647064
2673.0,-22.76681900024414,-13.059121131896973,0.6748003363609314,-2.4813966751098633,-10.82236385345459,-0.10221762955188751,7.117512226104736,-0.22767707705497742,-0.16553030908107758
2674.0,-22.766674041748047,-11.860648155212402,0.6718478798866272,-2.653193235397339,-11.98532772064209,-0.23336002230644226,6.657542705535889,-0.2389468252658844,-0.03836919739842415
2675.0,-22.766538619995117,-10.704407691955566,0.669402003288269,-2.625286102294922,-12.717856407165527,-0.09886050969362259,6.139675617218018,-0.27803322672843933,-0.15916039049625397
2676.0,-22.76641845703125,-9.588913917541504,0.6673974394798279,-2.79135799407959,-13.583748817443848,-0.3478594124317169,5.618754863739014,-0.287275105714798,-0.14300157129764557
2677.0,-22.766313552856445,-8.512734413146973,0.6657782196998596,-2.863452672958374,-14.371858596801758,-0.11553983390331268,5.002380847930908,-0.2856147587299347,-0.07829879969358444
2678.0,-22.766220092773438,-7.474475383758545,0.6644914150238037,-2.8174092769622803,-14.762223243713379,-0.026475820690393448,4.415650844573975,-0.3058706521987915,-0.09198801964521408
2679.0,-22.766145706176758,-6.472801208496094,0.663482129573822,-2.7817113399505615,-15.187326431274414,-0.001032057567499578,3.857755422592163,-0.2972491979598999,-0.06671362370252609
2680.0,-22.766080856323242,-5.50642204284668,0.6627025604248047,-2.641044855117798,-15.388237953186035,0.3495214283466339,3.325221538543701,-0.31232500076293945,-0.015015861950814724
2681.0,-22.766033172607422,-4.574092388153076,0.6621133685112,-2.6595513820648193,-15.844091415405273,-0.0223225187510252,2.7521917819976807,-0.36273840069770813,-0.10296397656202316
2857.0,-21.230833053588867,-48.749629974365234,0.8322926163673401,7.882353782653809,23.44615364074707,0.7660661935806274,2.653397560119629,0.08363254368305206,-0.45499247312545776
2858.0,-21.230607986450195,-46.292972564697266,0.8285293579101562,6.184536457061768,20.38444709777832,-0.6597166657447815,3.5027289390563965,0.094639353454113,-0.04045344889163971
2859.0,-21.230371475219727,-43.92294692993164,0.8218287825584412,5.518348217010498,17.88726806640625,0.6718922853469849,4.426336765289307,0.033504363149404526,-0.46642211079597473
2860.0,-21.230117797851562,-41.636505126953125,0.8130370378494263,4.0245041847229,15.484132766723633,-0.565368115901947,5.0953850746154785,0.021994099020957947,-0.05913511663675308
2861.0,-21.2298583984375,-39.43067932128906,0.8028287291526794,3.5113558769226074,13.56783390045166,0.6057291626930237,5.739670276641846,0.004582053516060114,-0.4066140949726105
2862.0,-21.229597091674805,-37.302616119384766,0.7917152643203735,2.2567355632781982,11.522782325744629,-0.38887661695480347,6.216121196746826,-0.01121181808412075,-0.09981399774551392
2863.0,-21.22933006286621,-35.24958419799805,0.7801191806793213,1.711993932723999,9.718291282653809,0.33452507853507996,6.741652488708496,-0.06331626325845718,-0.3954607844352722
2864.0,-21.229063034057617,-33.268924713134766,0.7683643698692322,0.705664873123169,7.981643199920654,-0.2682914435863495,7.148804664611816,-0.11352730542421341,-0.16072212159633636
2865.0,-21.228796005249023,-31.358081817626953,0.7567164897918701,0.15423224866390228,6.393008232116699,0.3468961715698242,7.502346515655518,-0.11361850053071976,-0.326393723487854
2866.0,-21.228532791137695,-29.514602661132812,0.7453779578208923,-0.6506970524787903,4.752874851226807,-0.1432504653930664,7.7574310302734375,-0.12588654458522797,-0.146132692694664
2867.0,-21.2282772064209,-27.736101150512695,0.7345110177993774,-1.0423423051834106,3.220294713973999,0.37905600666999817,8.114364624023438,-0.17189456522464752,-0.30886223912239075
2868.0,-21.228025436401367,-26.020292282104492,0.7242364883422852,-1.8188706636428833,1.578292727470398,-0.12154592573642731,8.26052188873291,-0.12797145545482635,-0.12942665815353394
2869.0,-21.22776985168457,-24.364959716796875,0.714646577835083,-2.218871831893921,0.06242719292640686,0.28959038853645325,8.5305757522583,-0.16234804689884186,-0.18867316842079163
2870.0,-21.22752571105957,-22.767976760864258,0.705807626247406,-2.8039681911468506,-1.5580757856369019,0.028476204723119736,8.620110511779785,-0.2580258548259735,-0.10870508849620819
2871.0,-21.22728729248047,-21.2272891998291,0.6977625489234924,-3.2274975776672363,-3.319488286972046,0.2158404290676117,8.641867637634277,-0.2595066726207733,-0.2577803432941437
2872.0,-21.22705841064453,-19.740907669067383,0.6905286312103271,-3.532113790512085,-4.72450590133667,0.12701380252838135,8.580826759338379,-0.3059614896774292,-0.12983570992946625
2873.0,-21.226839065551758,-18.306917190551758,0.6841051578521729,-3.8638930320739746,-6.443953514099121,0.2765638530254364,8.458273887634277,-0.3190859258174896,-0.21831491589546204
2874.0,-21.226638793945312,-16.923477172851562,0.67847740650177,-4.259406566619873,-7.941550254821777,0.10610466450452805,8.328548431396484,-0.3170575797557831,-0.10828335583209991
2875.0,-21.2264461517334,-15.588797569274902,0.6736177802085876,-4.491220951080322,-9.512166023254395,0.21813008189201355,8.02635669708252,-0.3778667449951172,-0.13428950309753418
2876.0,-21.22626495361328,-14.301163673400879,0.6694808602333069,-4.7480621337890625,-10.929139137268066,0.010261420160531998,7.5857343673706055,-0.3679645359516144,-0.16970866918563843
2877.0,-21.226099014282227,-13.058916091918945,0.6660142540931702,-4.927816390991211,-12.21842098236084,0.12613411247730255,7.231154441833496,-0.3460199236869812,-0.1653287261724472
2878.0,-21.2259464263916,-11.860454559326172,0.6631617546081543,-5.096951007843018,-13.427480697631836,0.07735293358564377,6.869353294372559,-0.41667914390563965,-0.1285833716392517
2879.0,-21.225805282592773,-10.704230308532715,0.6608582139015198,-5.126487731933594,-14.430474281311035,0.16124846041202545,6.339610576629639,-0.42966124415397644,-0.1847972869873047
2880.0,-21.225679397583008,-9.588752746582031,0.6590299606323242,-5.230025768280029,-15.165907859802246,0.23805736005306244,5.755614757537842,-0.42319101095199585,-0.17930744588375092
2881.0,-21.225568771362305,-8.512587547302246,0.6576074957847595,-5.494633197784424,-16.273963928222656,0.05620402842760086,5.193652629852295,-0.4923038184642792,-0.10753393173217773
2882.0,-21.22547721862793,-7.474345684051514,0.6565280556678772,-5.489314556121826,-16.756914138793945,-0.03782099112868309,4.576847076416016,-0.5482239127159119,-0.01581534929573536
2883.0,-21.22539520263672,-6.472687244415283,0.6557278037071228,-5.49688720703125,-17.277402877807617,-0.05921986326575279,3.9839320182800293,-0.5364266037940979,-0.05629545822739601
2884.0,-21.225326538085938,-5.506324291229248,0.6551457047462463,-5.692446708679199,-17.80967140197754,-0.4154994785785675,3.343079090118408,-0.5007334351539612,-0.033408280462026596
3061.0,-19.74437141418457,-48.74960708618164,0.8322268724441528,8.286704063415527,24.759092330932617,0.766072690486908,2.598097085952759,0.11351966112852097,-0.5031432509422302
3062.0,-19.74415397644043,-46.29290771484375,0.8282251954078674,6.4373931884765625,21.48531723022461,-0.7223114371299744,3.434030532836914,0.10391940176486969,-0.08662614226341248
3063.0,-19.743925094604492,-43.922855377197266,0.8211055994033813,5.660970687866211,18.758024215698242,0.7108283042907715,4.298156261444092,0.006926111411303282,-0.5246592164039612
3064.0,-19.743680953979492,-41.63638687133789,0.8117761611938477,4.0104289054870605,16.238351821899414,-0.6376360058784485,4.958607196807861,0.010745089501142502,-0.09098680317401886
3065.0,-19.743425369262695,-39.430538177490234,0.8009539246559143,3.2932164669036865,14.160947799682617,0.5095767974853516,5.547729015350342,-0.030033085495233536,-0.4635625183582306
3066.0,-19.74317169189453,-37.30246353149414,0.7891855239868164,1.777476191520691,11.914846420288086,-0.6020026206970215,6.0284647941589355,-0.05336439236998558,-0.13490475714206696
3067.0,-19.7429141998291,-35.24941635131836,0.7769205570220947,1.2483669519424438,10.143413543701172,0.3916051685810089,6.566619396209717,-0.057470083236694336,-0.3947661519050598
3068.0,-19.742652893066406,-33.268741607666016,0.764503002166748,0.1238965392112732,8.306675910949707,-0.31998327374458313,6.94222354888916,-0.06710020452737808,-0.14656512439250946
3069.0,-19.74239158630371,-31.357892990112305,0.7522153258323669,-0.5651558041572571,6.618064880371094,0.1516522616147995,7.335461139678955,-0.07261986285448074,-0.36861473321914673
3070.0,-19.742136001586914,-29.514404296875,0.7402716875076294,-1.4916077852249146,4.923343658447266,-0.27546927332878113,7.595951557159424,-0.09313459694385529,-0.1119220107793808
3071.0,-19.741884231567383,-27.735897064208984,0.7288459539413452,-2.1532022953033447,3.217658758163452,0.15644799172878265,7.923630714416504,-0.14378595352172852,-0.3023310601711273
3072.0,-19.741636276245117,-26.020078659057617,0.7180700898170471,-3.084474802017212,1.4583587646484375,-0.3390805125236511,8.118155479431152,-0.17226170003414154,-0.14417479932308197
3073.0,-19.74138832092285,-24.364744186401367,0.7080426812171936,-3.5894408226013184,-0.11273185908794403,0.15406815707683563,8.418061256408691,-0.22074472904205322,-0.24014891684055328
3074.0,-19.74114418029785,-22.76775360107422,0.6988348364830017,-4.386920928955078,-1.9430086612701416,-0.25431206822395325,8.574479103088379,-0.2078113853931427,-0.14043450355529785
3075.0,-19.74090576171875,-21.227060317993164,0.6904954314231873,-4.843540668487549,-3.7350621223449707,-0.037180352956056595,8.678067207336426,-0.1405661702156067,-0.3282932937145233
3076.0,-19.74067497253418,-19.740676879882812,0.6830425262451172,-5.381072044372559,-5.25311279296875,-0.24143542349338531,8.679411888122559,-0.2299555391073227,-0.12420206516981125
3077.0,-19.740455627441406,-18.30668830871582,0.6764752864837646,-5.854045391082764,-7.2771196365356445,-0.12506882846355438,8.510144233703613,-0.2881421148777008,-0.255039244890213
3078.0,-19.740249633789062,-16.923248291015625,0.6707819700241089,-6.25703763961792,-9.012871742248535,-0.17814716696739197,8.287474632263184,-0.25266480445861816,-0.27689024806022644
3079.0,-19.740053176879883,-15.588576316833496,0.6659346222877502,-6.5861711502075195,-10.601351737976074,0.049542464315891266,8.142611503601074,-0.26534441113471985,-0.2688291370868683
3080.0,-19.7398681640625,-14.30095100402832,0.6618810296058655,-7.0071001052856445,-12.244089126586914,-0.17945489287376404,7.831284046173096,-0.23924049735069275,-0.26360777020454407
3081.0,-19.73969841003418,-13.058713912963867,0.6585633754730225,-7.1817240715026855,-13.599920272827148,-0.0015226342948153615,7.486449718475342,-0.253958135843277,-0.2271585613489151
3082.0,-19.739534378051758,-11.860260963439941,0.6559175848960876,-7.679225444793701,-15.205183982849121,-0.2546519935131073,7.05666446685791,-0.3157176971435547,-0.18754826486110687
3083.0,-19.739389419555664,-10.704049110412598,0.6538667678833008,-7.847489356994629,-16.267507553100586,-0.00017627737543080002,6.518200397491455,-0.31162652373313904,-0.12897469103336334
3084.0,-19.739259719848633,-9.58858871459961,0.6523280739784241,-8.020522117614746,-17.34186553955078,-0.1367846578359604,5.891505718231201,-0.34527260065078735,-0.12096618115901947
3085.0,-19.739145278930664,-8.51244068145752,0.6512179970741272,-8.17958927154541,-18.222566604614258,-0.028270039707422256,5.265628337860107,-0.42663291096687317,-0.1792907863855362
3086.0,-19.739046096801758,-7.474215984344482,0.6504572033882141,-8.25532054901123,-18.839540481567383,0.21845027804374695,4.660828113555908,-0.43544918298721313,-0.1016433835029602
3087.0,-19.73896598815918,-6.472575664520264,0.6499701142311096,-8.436123847961426,-19.390825271606445,0.13950680196285248,4.019035816192627,-0.3416104018688202,-0.06856254488229752
3088.0,-19.738893508911133,-5.506228923797607,0.6496849060058594,-8.441265106201172,-19.575605392456055,0.5038514137268066,3.3183398246765137,-0.25828978419303894,-0.11097811907529831
3089.0,-19.73883819580078,-4.573930740356445,0.6495411396026611,-8.581462860107422,-20.144357681274414,-0.02666938491165638,2.7915921211242676,-0.39354822039604187,-0.16585563123226166
3265.0,-18.31028175354004,-48.74958801269531,0.8321666717529297,8.648756980895996,26.008623123168945,0.8423739671707153,2.502283811569214,0.13188762962818146,-0.5572900176048279
3266.0,-18.31007194519043,-46.292850494384766,0.8279467225074768,6.546360492706299,22.478675842285156,-0.7935971617698669,3.3141896724700928,0.12703777849674225,-0.12728315591812134
3267.0,-18.309846878051758,-43.92278289794922,0.8204440474510193,5.675187110900879,19.549123764038086,0.7298222780227661,4.160060882568359,0.036167073994874954,-0.5382378697395325
3268.0,-18.309614181518555,-41.63628005981445,0.8106226325035095,3.90531325340271,16.927461624145508,-0.6279645562171936,4.826548099517822,0.041012074798345566,-0.08249130845069885
3269.0,-18.309370040893555,-39.4304084777832,0.7992397546768188,3.0968093872070312,14.74061393737793,0.549119234085083,5.363663673400879,-0.04226217046380043,-0.4865424335002899
3270.0,-18.309125900268555,-37.30232238769531,0.7868734002113342,1.610964059829712,12.475532531738281,-0.4541793465614319,5.855576038360596,-0.0679079070687294,-0.15121714770793915
3271.0,-18.308870315551758,-35.249263763427734,0.7739991545677185,0.8604470491409302,10.565406799316406,0.47059136629104614,6.351874828338623,-0.07668297737836838,-0.4142284095287323
3272.0,-18.308622360229492,-33.26858139038086,0.7609801888465881,-0.5990405678749084,8.585498809814453,-0.3986019492149353,6.6944379806518555,-0.1189226508140564,-0.1427551507949829
3273.0,-18.30837059020996,-31.35771369934082,0.748115599155426,-1.3384766578674316,6.906836986541748,0.28104063868522644,7.1312785148620605,-0.12347544729709625,-0.3890138864517212
3274.0,-18.308122634887695,-29.514217376708984,0.7356309294700623,-2.3746936321258545,5.105058193206787,-0.19567781686782837,7.382185935974121,-0.1305840164422989,-0.1450883001089096
3275.0,-18.307878494262695,-27.735700607299805,0.7237119078636169,-3.1244282722473145,3.369016408920288,0.29259979724884033,7.686722278594971,-0.15468375384807587,-0.3597770035266876
3276.0,-18.307634353637695,-26.01987075805664,0.712501585483551,-4.171670436859131,1.6013014316558838,-0.11024224013090134,7.926829814910889,-0.18188153207302094,-0.2016037553548813
3277.0,-18.30739402770996,-24.364532470703125,0.7021051049232483,-4.860400676727295,-0.16428107023239136,0.29664650559425354,8.224967002868652,-0.2016150802373886,-0.3195331394672394
3278.0,-18.307153701782227,-22.76754379272461,0.6925984025001526,-5.809690475463867,-2.0720949172973633,-0.1131199523806572,8.461483001708984,-0.22372481226921082,-0.1674351543188095
3279.0,-18.306915283203125,-21.226842880249023,0.6840366721153259,-6.460509777069092,-3.8501298427581787,0.24613511562347412,8.56272029876709,-0.24557875096797943,-0.2892328202724457
3280.0,-18.306684494018555,-19.740449905395508,0.676440954208374,-7.162665843963623,-5.649155139923096,0.05931582674384117,8.589828491210938,-0.30782341957092285,-0.17769302427768707
3281.0,-18.30646514892578,-18.30646324157715,0.6698131561279297,-7.781650543212891,-7.845336437225342,0.27979210019111633,8.490379333496094,-0.33449265360832214,-0.27333807945251465
3282.0,-18.306257247924805,-16.92302703857422,0.6641445755958557,-8.467057228088379,-9.735678672790527,0.09442497044801712,8.391345024108887,-0.264491468667984,-0.2772625684738159
3283.0,-18.306058883666992,-15.588356971740723,0.6594052910804749,-9.072418212890625,-11.685550689697266,0.09684786200523376,8.266043663024902,-0.2989605665206909,-0.2905271053314209
3284.0,-18.305870056152344,-14.300736427307129,0.6555399298667908,-9.485958099365234,-13.331063270568848,0.05208469182252884,7.963744163513184,-0.387405663728714,-0.2362903356552124
3285.0,-18.305692672729492,-13.05850887298584,0.6524843573570251,-9.900516510009766,-15.132386207580566,0.2045149952173233,7.557429790496826,-0.38174307346343994,-0.2579202353954315
3286.0,-18.30552864074707,-11.860068321228027,0.6501639485359192,-10.406723976135254,-16.694028854370117,0.04978668689727783,7.190746784210205,-0.3417958617210388,-0.2223513275384903
3287.0,-18.305376052856445,-10.70387077331543,0.648491621017456,-10.720953941345215,-18.177961349487305,0.09684603661298752,6.735096454620361,-0.3905627429485321,-0.15492749214172363
3288.0,-18.30524444580078,-9.588425636291504,0.6473720073699951,-10.983834266662598,-19.32470703125,0.13747544586658478,6.083461284637451,-0.44787999987602234,-0.1602560132741928
3289.0,-18.30512809753418,-8.51229190826416,0.646705150604248,-11.230401039123535,-20.32451057434082,0.04964180290699005,5.451366901397705,-0.5196958184242249,-0.2844172418117523
3290.0,-18.305025100708008,-7.474087238311768,0.6463950276374817,-11.643561363220215,-21.45911979675293,-0.21644236147403717,4.764517307281494,-0.596141517162323,-0.15125219523906708
3291.0,-18.30493927001953,-6.472465515136719,0.6463506817817688,-11.793824195861816,-21.85304069519043,-0.2351778745651245,4.068737030029297,-0.6212379932403564,-0.13128267228603363
3292.0,-18.30487060546875,-5.506135940551758,0.6464819312095642,-12.104294776916504,-22.455562591552734,-0.7343906760215759,3.332573175430298,-0.688019871711731,-0.091722771525383
3293.0,-18.30481719970703,-4.573854446411133,0.6467137932777405,-12.377531051635742,-22.669008255004883,-0.028610868379473686,2.6343095302581787,-0.6381587982177734,0.09766370803117752
3469.0,-16.926713943481445,-48.749568939208984,0.8321122527122498,9.080462455749512,27.209718704223633,0.9778613448143005,2.3980751037597656,0.0910753533244133,-0.5652690529823303
3470.0,-16.926511764526367,-46.29280090332031,0.827694833278656,6.789185523986816,23.436800003051758,-0.8370624780654907,3.164821147918701,0.1052776649594307,-0.13167311251163483
3471.0,-16.926298141479492,-43.92269515991211,0.819844126701355,5.726452827453613,20.303739547729492,0.6782958507537842,3.9350035190582275,0.01881115883588791,-0.5304122567176819
3472.0,-16.92607307434082,-41.636173248291016,0.8095751404762268,3.8476006984710693,17.57892417907715,-0.6290926933288574,4.585448741912842,-0.029490768909454346,-0.09660232067108154
3473.0,-16.925840377807617,-39.430294036865234,0.7976832985877991,3.031566858291626,15.329389572143555,0.6218381524085999,5.109708309173584,-0.05405738577246666,-0.5294949412345886
3474.0,-16.92560577392578,-37.302188873291016,0.7847742438316345,1.3686718940734863,12.937163352966309,-0.4679875671863556,5.611697196960449,-0.020966313779354095,-0.11837710440158844
3475.0,-16.92536735534668,-35.24911880493164,0.7713485956192017,0.4353923201560974,10.85801887512207,0.3784621059894562,6.082611560821533,-0.03216995671391487,-0.4774320423603058
3476.0,-16.925125122070312,-33.2684211730957,0.7577896118164062,-0.9809775352478027,8.985087394714355,-0.3749329745769501,6.385467052459717,-0.09855157881975174,-0.17235706746578217
3477.0,-16.924882888793945,-31.357555389404297,0.7444095611572266,-1.8945883512496948,7.184962272644043,0.2806432545185089,6.843338966369629,-0.10098015516996384,-0.40419676899909973
3478.0,-16.924644470214844,-29.514041900634766,0.731446385383606,-3.1887502670288086,5.246004581451416,-0.32668861746788025,7.108245849609375,-0.07136651873588562,-0.2036905139684677
3479.0,-16.924409866333008,-27.735517501831055,0.7191000580787659,-4.088169574737549,3.488891839981079,0.2476036697626114,7.387635231018066,-0.07338228076696396,-0.3183690309524536
3480.0,-16.924177169799805,-26.019685745239258,0.7075204849243164,-5.31459379196167,1.5762759447097778,-0.2803429365158081,7.710301399230957,-0.11036764830350876,-0.21786901354789734
3481.0,-16.92394256591797,-24.364334106445312,0.6968212127685547,-6.0705156326293945,-0.23927463591098785,0.18611575663089752,8.009181022644043,-0.08832592517137527,-0.3383958637714386
3482.0,-16.923707962036133,-22.767335891723633,0.6870860457420349,-7.206924915313721,-2.216024160385132,-0.243263378739357,8.298508644104004,-0.0818282887339592,-0.1788521707057953
3483.0,-16.92347526550293,-21.22662925720215,0.6783729195594788,-7.95609188079834,-4.118137836456299,0.1030188724398613,8.421053886413574,-0.17055147886276245,-0.26343652606010437
3484.0,-16.923248291015625,-19.740236282348633,0.6707119345664978,-8.980076789855957,-6.297248363494873,-0.18924513459205627,8.48732852935791,-0.15136438608169556,-0.209086075425148
3485.0,-16.92302894592285,-18.306245803833008,0.6641104221343994,-9.84735107421875,-8.492413520812988,-0.03726676478981972,8.400055885314941,-0.15607281029224396,-0.26025664806365967
3486.0,-16.922821044921875,-16.922807693481445,0.6585584282875061,-10.661524772644043,-10.569207191467285,-0.1724633127450943,8.300411224365234,-0.19720600545406342,-0.18700402975082397
3487.0,-16.92262077331543,-15.588141441345215,0.6540257334709167,-11.335410118103027,-12.697576522827148,-0.007057557813823223,8.223796844482422,-0.25097835063934326,-0.28729966282844543
3488.0,-16.92243003845215,-14.300527572631836,0.6504583358764648,-12.103988647460938,-14.67710018157959,-0.16962288320064545,8.014121055603027,-0.354958176612854,-0.19830797612667084
3489.0,-16.922250747680664,-13.058304786682129,0.6477846503257751,-12.643975257873535,-16.60944938659668,0.03247252479195595,7.65871524810791,-0.36928847432136536,-0.3020789623260498
3490.0,-16.922086715698242,-11.85987663269043,0.6459188461303711,-13.317421913146973,-18.531335830688477,-0.14505071938037872,7.206545829772949,-0.47021484375,-0.2765806019306183
3491.0,-16.921934127807617,-10.703690528869629,0.6447656750679016,-13.840470314025879,-20.057680130004883,0.01608460582792759,6.773582935333252,-0.5372647643089294,-0.22369502484798431
3492.0,-16.921796798706055,-9.588263511657715,0.6442145705223083,-14.48533821105957,-21.808256149291992,-0.3831522762775421,6.156322956085205,-0.5134310722351074,-0.19692634046077728
3493.0,-16.921676635742188,-8.512146949768066,0.6441471576690674,-14.757589340209961,-22.661476135253906,-0.053685512393713,5.38749885559082,-0.5405663847923279,-0.31866195797920227
3494.0,-16.92157554626465,-7.4739603996276855,0.6444472670555115,-15.198418617248535,-23.931678771972656,0.14464779198169708,4.776859760284424,-0.5654001832008362,-0.2414163202047348
3495.0,-16.921491622924805,-6.472359657287598,0.6450013518333435,-15.48182487487793,-24.40502166748047,0.2338864803314209,3.8842031955718994,-0.6189727187156677,-0.1330249309539795
3496.0,-16.921424865722656,-5.5060505867004395,0.6457028388977051,-15.718926429748535,-24.486587524414062,0.8271623253822327,3.1059014797210693,-0.5211306214332581,-0.08380871266126633
3497.0,-16.92137336730957,-4.573787212371826,0.6464529037475586,-15.912141799926758,-25.022382736206055,0.21756039559841156,2.4237210750579834,-0.5111488699913025,-0.36657315492630005
3673.0,-15.591890335083008,-48.749549865722656,0.8320627212524414,9.38236141204834,28.230777740478516,0.9844828248023987,2.2744061946868896,0.06717824190855026,-0.5507017970085144
3674.0,-15.59169864654541,-46.292755126953125,0.8274670243263245,6.944664001464844,24.263580322265625,-0.8693400621414185,2.989072322845459,0.0981622040271759,-0.11989639699459076
3675.0,-15.591493606567383,-43.92262268066406,0.8193022012710571,5.915977954864502,21.08443260192871,0.7943413257598877,3.6979422569274902,0.048177942633628845,-0.5706029534339905
3676.0,-15.591279983520508,-41.63608932495117,0.808628499507904,3.8895163536071777,18.229095458984375,-0.604803740978241,4.3129563331604,-0.014361628331243992,-0.09321553260087967
3677.0,-15.591058731079102,-39.4301872253418,0.7962766885757446,2.7769277095794678,15.763510704040527,0.5419926643371582,4.815728664398193,-0.04027113690972328,-0.5503188967704773
3678.0,-15.590836524963379,-37.302066802978516,0.7828789353370667,1.020615577697754,13.347036361694336,-0.4777321517467499,5.289648056030273,-0.0444980226457119,-0.09679197520017624
3679.0,-15.590608596801758,-35.24898147583008,0.7689595818519592,0.014758520759642124,11.257643699645996,0.5332191586494446,5.76411771774292,-0.04449444264173508,-0.4978023171424866
3680.0,-15.59037971496582,-33.26828384399414,0.7549198865890503,-1.5078790187835693,9.321663856506348,-0.27735474705696106,6.10245943069458,-0.05138644948601723,-0.21646808087825775
3681.0,-15.590150833129883,-31.357404708862305,0.7410842180252075,-2.448770523071289,7.492039680480957,0.43407684564590454,6.557373523712158,-0.09731937199831009,-0.3935359716415405
3682.0,-15.589921951293945,-29.513883590698242,0.7277035117149353,-3.987874746322632,5.4419636726379395,-0.2800326645374298,6.811013221740723,-0.11081980913877487,-0.22250327467918396
3683.0,-15.589699745178223,-27.735349655151367,0.7149911522865295,-4.940084457397461,3.700410842895508,0.3700616657733917,7.059460163116455,-0.1360808163881302,-0.28104642033576965
3684.0,-15.5894775390625,-26.019502639770508,0.7031049132347107,-6.348355293273926,1.6316778659820557,-0.27805647253990173,7.4343767166137695,-0.18602848052978516,-0.18601053953170776
3685.0,-15.589250564575195,-24.36414909362793,0.6921671628952026,-7.335587024688721,-0.274379700422287,0.20028778910636902,7.697624206542969,-0.16017891466617584,-0.3217931091785431
3686.0,-15.58902645111084,-22.767147064208984,0.6822686791419983,-8.625250816345215,-2.322801351547241,-0.16276593506336212,7.991329669952393,-0.1591019481420517,-0.23859380185604095
3687.0,-15.588800430297852,-21.22642707824707,0.6734758019447327,-9.670151710510254,-4.424627304077148,0.13852562010288239,8.115829467773438,-0.2632448673248291,-0.26991036534309387
3688.0,-15.588578224182129,-19.740036010742188,0.6658281683921814,-10.793158531188965,-6.660157203674316,-0.07941006869077682,8.291938781738281,-0.20261310040950775,-0.199408158659935
3689.0,-15.588364601135254,-18.306039810180664,0.6593360304832458,-11.757454872131348,-8.9866943359375,0.13825559616088867,8.226349830627441,-0.1577128767967224,-0.3419012427330017
3690.0,-15.588157653808594,-16.92259979248047,0.6539927124977112,-12.774429321289062,-11.256082534790039,-0.06130683422088623,8.235660552978516,-0.26869842410087585,-0.3128513991832733
3691.0,-15.587958335876465,-15.587934494018555,0.6497703194618225,-13.725386619567871,-13.645981788635254,0.1028847023844719,8.070426940917969,-0.2984168231487274,-0.4177415072917938
3692.0,-15.587769508361816,-14.300323486328125,0.6466149687767029,-14.712308883666992,-15.776450157165527,0.024996517226099968,7.897411823272705,-0.3640744984149933,-0.3066692054271698
3693.0,-15.587592124938965,-13.058106422424316,0.6444498896598816,-15.678659439086914,-18.115419387817383,0.1426401287317276,7.537318706512451,-0.3383726477622986,-0.3939502537250519
3694.0,-15.58742618560791,-11.859686851501465,0.6431818604469299,-16.56658935546875,-20.249433517456055,0.01922050677239895,7.192569255828857,-0.3471856117248535,-0.2902831733226776
3695.0,-15.587273597717285,-10.703519821166992,0.6427068710327148,-17.451189041137695,-22.3856201171875,-0.0301132220774889,6.646193981170654,-0.4888205826282501,-0.23643207550048828
3696.0,-15.587137222290039,-9.588105201721191,0.6428971290588379,-18.136648178100586,-23.749671936035156,0.31351709365844727,5.996326923370361,-0.5919468998908997,-0.23615992069244385
3697.0,-15.587020874023438,-8.512009620666504,0.6436108946800232,-18.69982147216797,-25.331703186035156,0.13561959564685822,5.291828632354736,-0.6746488213539124,-0.2408393770456314
3698.0,-15.586920738220215,-7.473843574523926,0.644709050655365,-19.325029373168945,-26.71357536315918,-0.3231549561023712,4.534735202789307,-0.6587806344032288,-0.12337164580821991
3699.0,-15.586838722229004,-6.472262859344482,0.6460521817207336,-19.51416015625,-27.11393928527832,-0.24979104101657867,3.795973300933838,-0.7767964005470276,-0.2505466043949127
3700.0,-15.586775779724121,-5.5059733390808105,0.6475011706352234,-19.95283317565918,-28.031322479248047,-1.1464253664016724,3.096778631210327,-0.9291529059410095,-0.022484436631202698
3701.0,-15.586731910705566,-4.573729991912842,0.6489347815513611,-20.55116844177246,-28.098630905151367,-0.34569600224494934,2.0919029712677,-0.853541374206543,0.20327402651309967
3877.0,-14.304094314575195,-48.74953842163086,0.8320180177688599,9.542494773864746,29.06749153137207,0.9111768007278442,2.1264803409576416,0.017162838950753212,-0.5861701965332031
3878.0,-14.303915023803711,-46.29271697998047,0.8272624015808105,7.0227131843566895,25.018552780151367,-0.8840922117233276,2.8308603763580322,0.006067953538149595,-0.13107699155807495
3879.0,-14.303720474243164,-43.92256164550781,0.8188157081604004,5.883328437805176,21.693788528442383,0.8164463639259338,3.4991297721862793,0.02971634268760681,-0.6109427809715271
3880.0,-14.303519248962402,-41.63601303100586,0.8077787756919861,3.642760753631592,18.67119789123535,-0.7666248679161072,4.0662994384765625,0.027358949184417725,-0.06508716195821762
3881.0,-14.303312301635742,-39.43008804321289,0.795015275478363,2.5839736461639404,16.211999893188477,0.5845553874969482,4.554331302642822,-0.015413039363920689,-0.5426278710365295
3882.0,-14.303099632263184,-37.30195617675781,0.7811807990074158,0.6768805980682373,13.691597938537598,-0.563287079334259,5.009021282196045,-0.037540044635534286,-0.11178900301456451
3883.0,-14.302886009216309,-35.24886703491211,0.7668218612670898,-0.42790651321411133,11.564650535583496,0.37492701411247253,5.447697162628174,-0.05162489041686058,-0.4612087607383728
3884.0,-14.302672386169434,-33.26815414428711,0.7523562908172607,-2.1059885025024414,9.527274131774902,-0.4573530852794647,5.780701160430908,-0.037532832473516464,-0.1961558759212494
3885.0,-14.302457809448242,-31.357257843017578,0.7381210327148438,-3.211937427520752,7.599711894989014,0.2930976450443268,6.214722156524658,-0.10223770886659622,-0.374586820602417
3886.0,-14.302240371704102,-29.51373291015625,0.7243802547454834,-4.748214244842529,5.568620681762695,-0.35711365938186646,6.449824810028076,-0.14296649396419525,-0.2541656196117401
3887.0,-14.302030563354492,-27.73519515991211,0.7113595008850098,-5.791878700256348,3.7700133323669434,0.2816053628921509,6.668163776397705,-0.12438643723726273,-0.34398195147514343
3888.0,-14.301817893981934,-26.019346237182617,0.6992250680923462,-7.284512042999268,1.6844892501831055,-0.31700849533081055,7.046500205993652,-0.13882660865783691,-0.17396380007266998
3889.0,-14.301603317260742,-24.36397933959961,0.6881089806556702,-8.24312686920166,-0.16490568220615387,0.2764029800891876,7.296314239501953,-0.14542162418365479,-0.3394491374492645
3890.0,-14.301385879516602,-22.76696014404297,0.6781095862388611,-9.788281440734863,-2.4349260330200195,-0.1964472234249115,7.600368022918701,-0.15328501164913177,-0.30936339497566223
3891.0,-14.30117130279541,-21.22624397277832,0.6693048477172852,-10.879759788513184,-4.494541645050049,0.2265169322490692,7.798596382141113,-0.1643693596124649,-0.28051018714904785
3892.0,-14.300956726074219,-19.739843368530273,0.6617431044578552,-12.374831199645996,-6.944579601287842,-0.14293648302555084,7.952529430389404,-0.15060962736606598,-0.22764644026756287
3893.0,-14.300749778747559,-18.305845260620117,0.6554391384124756,-13.542244911193848,-9.447028160095215,0.09287381172180176,7.9862141609191895,-0.20660986006259918,-0.36295369267463684
3894.0,-14.300545692443848,-16.922399520874023,0.6503944993019104,-14.81345272064209,-11.92622184753418,-0.06717944890260696,7.97495174407959,-0.286516398191452,-0.35733315348625183
3895.0,-14.300353050231934,-15.587732315063477,0.6465847492218018,-16.07533836364746,-14.60200309753418,-0.03167249634861946,7.924339771270752,-0.2593969404697418,-0.38165518641471863
3896.0,-14.300168991088867,-14.300127029418945,0.6439571976661682,-17.42640495300293,-17.230833053588867,-0.20332540571689606,7.6412153244018555,-0.3081282079219818,-0.3822918236255646
3897.0,-14.299994468688965,-13.057920455932617,0.6424362659454346,-18.351194381713867,-19.453115463256836,0.15220876038074493,7.391409873962402,-0.3756699860095978,-0.520460307598114
3898.0,-14.299833297729492,-11.859511375427246,0.6419243812561035,-19.808942794799805,-22.368364334106445,-0.2993758022785187,6.787670612335205,-0.45752522349357605,-0.3901030719280243
3899.0,-14.299684524536133,-10.70335578918457,0.6423046588897705,-20.830842971801758,-24.261491775512695,0.10290693491697311,6.329662322998047,-0.6119899153709412,-0.39295494556427
3900.0,-14.299553871154785,-9.58796215057373,0.6434297561645508,-22.048112869262695,-26.735172271728516,-0.40232256054878235,5.704283714294434,-0.7136159539222717,-0.37895846366882324
3901.0,-14.299445152282715,-8.511889457702637,0.645136833190918,-22.987625122070312,-27.969144821166992,-0.03759552165865898,4.837671279907227,-0.7602442502975464,-0.3515816926956177
3902.0,-14.29935359954834,-7.473742961883545,0.6472564339637756,-24.068693161010742,-29.250761032104492,0.2513033151626587,4.222153186798096,-0.8377289175987244,-0.3672018051147461
3903.0,-14.29927921295166,-6.472182273864746,0.6496134400367737,-25.026439666748047,-30.289119720458984,0.10579807311296463,3.3133256435394287,-0.9268070459365845,-0.1976574957370758
3904.0,-14.299226760864258,-5.5059123039245605,0.6520405411720276,-25.569929122924805,-30.175418853759766,1.331229567527771,2.3332748413085938,-0.9746164679527283,-0.27792787551879883
3905.0,-14.299193382263184,-4.573686599731445,0.6543793678283691,-25.80343246459961,-30.805286407470703,0.3360152840614319,1.845617413520813,-1.134964108467102,-0.4931526482105255
4081.0,-13.061668395996094,-48.74951934814453,0.8319786787033081,9.9192476272583,29.927154541015625,0.9929839372634888,1.9849492311477661,0.01938292570412159,-0.6150560975074768
4082.0,-13.061498641967773,-46.29267120361328,0.8270807266235352,7.258334636688232,25.779266357421875,-0.8976908922195435,2.64493465423584,0.018648585304617882,-0.12457631528377533
4083.0,-13.061317443847656,-43.92250061035156,0.8183832764625549,5.883952617645264,22.26104736328125,0.8331407308578491,3.250684976577759,0.02289148047566414,-0.6509435176849365
4084.0,-13.061128616333008,-41.635929107666016,0.8070231080055237,3.6373019218444824,19.233362197875977,-0.6648123264312744,3.8070566654205322,-0.0033977781422436237,-0.12964464724063873
4085.0,-13.060935020446777,-39.429996490478516,0.7938929200172424,2.507249116897583,16.693601608276367,0.698334276676178,4.27763032913208,-0.0518171489238739,-0.5956018567085266
4086.0,-13.060737609863281,-37.30186080932617,0.7796712517738342,0.4270687401294708,14.066048622131348,-0.5409055352210999,4.7052388191223145,-0.038840968161821365,-0.18913792073726654
4087.0,-13.060539245605469,-35.24875259399414,0.7649239897727966,-0.7868227362632751,11.914310455322266,0.4553039073944092,5.113572597503662,-0.030234916135668755,-0.483303040266037
4088.0,-13.060338973999023,-33.26803207397461,0.7500835061073303,-2.5524308681488037,9.799339294433594,-0.38325053453445435,5.393902778625488,-0.042682942003011703,-0.10862987488508224
4089.0,-13.060135841369629,-31.357131958007812,0.7355000972747803,-3.6926004886627197,7.839794158935547,0.40892916917800903,5.792123794555664,-0.11139367520809174,-0.39734572172164917
4090.0,-13.059935569763184,-29.51359748840332,0.7214526534080505,-5.372596263885498,5.771266460418701,-0.28113099932670593,6.018177509307861,-0.14544321596622467,-0.2509462535381317
4091.0,-13.059737205505371,-27.735048294067383,0.7081761956214905,-6.480503559112549,3.9342875480651855,0.39623093605041504,6.25380277633667,-0.11203430593013763,-0.3498225510120392
4092.0,-13.059537887573242,-26.01919174194336,0.6958456635475159,-8.098079681396484,1.8085767030715942,-0.2313465178012848,6.664809703826904,-0.15087783336639404,-0.2309378683567047
4093.0,-13.059334754943848,-24.36381721496582,0.6846050024032593,-9.343196868896484,-0.1794271320104599,0.27152857184410095,6.885051250457764,-0.1896296590566635,-0.36831891536712646
4094.0,-13.05912971496582,-22.76679801940918,0.6745626926422119,-10.925130844116211,-2.447153329849243,-0.08654182404279709,7.180210113525391,-0.1815723478794098,-0.32714787125587463
4095.0,-13.058928489685059,-21.22607421875,0.6658082604408264,-12.352057456970215,-4.75025749206543,0.18963514268398285,7.374206066131592,-0.17509005963802338,-0.33857038617134094
4096.0,-13.058722496032715,-19.73966407775879,0.6583983898162842,-13.942182540893555,-7.262493133544922,-0.22545504570007324,7.530471324920654,-0.2190956175327301,-0.29669222235679626
4097.0,-13.058523178100586,-18.3056583404541,0.6523573398590088,-15.299887657165527,-9.823094367980957,0.1220489889383316,7.589118957519531,-0.23951281607151031,-0.37076589465141296
4098.0,-13.058327674865723,-16.922212600708008,0.6476947665214539,-16.841707229614258,-12.55599308013916,0.002697600983083248,7.575526237487793,-0.22719265520572662,-0.3551448583602905
4099.0,-13.058143615722656,-15.587546348571777,0.64439457654953,-18.395051956176758,-15.392288208007812,0.1302713006734848,7.490673065185547,-0.3429882526397705,-0.3806866407394409
4100.0,-13.057967185974121,-14.299942970275879,0.6424108147621155,-19.8543643951416,-18.31995964050293,0.05510794743895531,7.364677906036377,-0.44957879185676575,-0.3757734000682831
4101.0,-13.05780029296875,-13.057745933532715,0.6416731476783752,-21.573890686035156,-21.32378578186035,0.1216370016336441,6.937862396240234,-0.4793117642402649,-0.5301423668861389
4102.0,-13.057647705078125,-11.85935115814209,0.6420798897743225,-23.0489501953125,-23.93276596069336,0.13986432552337646,6.606354713439941,-0.6443981528282166,-0.5079169273376465
4103.0,-13.057512283325195,-10.70321273803711,0.6435032486915588,-24.81641387939453,-27.148212432861328,-0.14616872370243073,5.714107513427734,-0.8138607740402222,-0.4150746464729309
4104.0,-13.057395935058594,-9.58784008026123,0.6457860469818115,-26.250795364379883,-28.715578079223633,0.3822724521160126,5.159221172332764,-0.9793991446495056,-0.46256735920906067
4105.0,-13.057297706604004,-8.511791229248047,0.6487367153167725,-27.885576248168945,-31.563352584838867,0.027762098237872124,4.1829447746276855,-0.9920267462730408,-0.45469337701797485
4106.0,-13.05722713470459,-7.473674297332764,0.6521478295326233,-29.373538970947266,-32.768733978271484,-0.43059852719306946,2.8575873374938965,-1.037122130393982,-0.3156861960887909
4107.0,-13.057173728942871,-6.472136974334717,0.6558051705360413,-30.413570404052734,-33.20351791381836,-0.033792540431022644,2.270317316055298,-1.136381983757019,-0.4153399169445038
4108.0,-13.057135581970215,-5.505891799926758,0.6594864726066589,-31.005523681640625,-34.66183090209961,-1.3041620254516602,1.501388430595398,-1.176492691040039,-0.3285416066646576
4109.0,-13.057120323181152,-4.5736918449401855,0.6630005836486816,-32.36825180053711,-34.73739242553711,-0.7249297499656677,-0.10270309448242188,-1.2745612859725952,0.006061181426048279
4285.0,-11.86301326751709,-48.749515533447266,0.8319440484046936,10.070931434631348,30.600536346435547,1.0118578672409058,1.8395521640777588,0.056897662580013275,-0.6218680739402771
4286.0,-11.862853050231934,-46.292640686035156,0.8269213438034058,7.368152618408203,26.41499137878418,-0.9040107727050781,2.424837350845337,0.08550774306058884,-0.12101279944181442
4287.0,-11.862687110900879,-43.92245101928711,0.8180027604103088,5.982529640197754,22.81077766418457,0.7964769005775452,2.975044012069702,0.03567291796207428,-0.6725277304649353
4288.0,-11.86251163482666,-41.635868072509766,0.8063567876815796,3.603015661239624,19.67137908935547,-0.7715139389038086,3.5251481533050537,0.02863343432545662,-0.1554110199213028
4289.0,-11.862333297729492,-39.429927825927734,0.7929019331932068,2.363839864730835,17.06212043762207,0.6198340058326721,3.9501500129699707,0.02886277064681053,-0.6042821407318115
4290.0,-11.862151145935059,-37.30177307128906,0.7783388495445251,0.2295207679271698,14.410310745239258,-0.5082917809486389,4.336721420288086,-0.032361071556806564,-0.2245027869939804
4291.0,-11.861967086791992,-35.248653411865234,0.7632507085800171,-0.9806122779846191,12.255082130432129,0.5440009236335754,4.712840557098389,-0.06341103464365005,-0.5655356049537659
4292.0,-11.861780166625977,-33.26791763305664,0.7480833530426025,-2.9006237983703613,10.005471229553223,-0.46634653210639954,4.983760356903076,-0.05301782116293907,-0.14215384423732758
4293.0,-11.861594200134277,-31.35702133178711,0.7332004904747009,-4.1465678215026855,8.011340141296387,0.42247962951660156,5.375100135803223,-0.04064546898007393,-0.4571170210838318
4294.0,-11.861405372619629,-29.51347541809082,0.7188942432403564,-5.945079326629639,5.905063152313232,-0.3939626216888428,5.584167003631592,-0.060806937515735626,-0.18461917340755463
4295.0,-11.861221313476562,-27.734922409057617,0.7054092884063721,-7.118729114532471,4.054751873016357,0.2960521876811981,5.812580585479736,-0.1328767091035843,-0.3253803253173828
4296.0,-11.861037254333496,-26.01905632019043,0.6929305791854858,-8.981112480163574,1.8128793239593506,-0.3379559814929962,6.154572486877441,-0.11781810969114304,-0.25314804911613464
4297.0,-11.860848426818848,-24.363676071166992,0.6816127300262451,-10.346603393554688,-0.23180340230464935,0.15560413897037506,6.411445140838623,-0.022345663979649544,-0.3314633071422577
4298.0,-11.860657691955566,-22.766645431518555,0.6715773940086365,-12.158212661743164,-2.6218671798706055,-0.23950150609016418,6.62738037109375,-0.050714973360300064,-0.30268093943595886
4299.0,-11.860466957092285,-21.225914001464844,0.6629254221916199,-13.678078651428223,-5.036708354949951,0.054773036390542984,6.867584705352783,-0.1796315312385559,-0.40120217204093933
4300.0,-11.860275268554688,-19.739501953125,0.655724287033081,-15.26772403717041,-7.4060211181640625,-0.11128650605678558,7.03695011138916,-0.227240651845932,-0.3461224436759949
4301.0,-11.860085487365723,-18.305490493774414,0.6500117778778076,-16.815170288085938,-10.172219276428223,0.13267503678798676,7.118481159210205,-0.17097097635269165,-0.4239075779914856
4302.0,-11.859903335571289,-16.922042846679688,0.6458079814910889,-18.75624656677246,-13.205297470092773,-0.13866092264652252,7.034618854522705,-0.1692480742931366,-0.39722421765327454
4303.0,-11.859729766845703,-15.587377548217773,0.6431078314781189,-20.434812545776367,-16.28902244567871,0.08470796793699265,7.010703086853027,-0.26855552196502686,-0.5404807925224304
4304.0,-11.859564781188965,-14.299776077270508,0.6418800354003906,-22.746747970581055,-19.762054443359375,-0.4171316921710968,6.641101360321045,-0.3800971806049347,-0.460237979888916
4305.0,-11.85941219329834,-13.057586669921875,0.6420636773109436,-24.249439239501953,-22.771085739135742,0.16502487659454346,6.471049785614014,-0.4653621315956116,-0.6251539587974548
4306.0,-11.859274864196777,-11.859206199645996,0.6435554623603821,-26.650264739990234,-26.344694137573242,-0.257542222738266,5.7068095207214355,-0.4903049170970917,-0.6705297827720642
4307.0,-11.85915470123291,-10.703088760375977,0.6462268233299255,-28.525577545166016,-29.256702423095703,0.20457208156585693,5.204762935638428,-0.5603166222572327,-0.6880049109458923
4308.0,-11.859063148498535,-9.587746620178223,0.6499105095863342,-31.104385375976562,-32.897701263427734,-0.5587100982666016,3.9280734062194824,-0.9056462049484253,-0.7298526167869568
4309.0,-11.858991622924805,-8.511727333068848,0.654390275478363,-33.01887130737305,-34.14054489135742,-0.11622349917888641,3.1969220638275146,-1.0243412256240845,-0.7254852652549744
4310.0,-11.858945846557617,-7.473644733428955,0.6594216823577881,-34.684635162353516,-37.113224029541016,0.4096033275127411,2.086076021194458,-1.4138668775558472,-0.9466396570205688
4311.0,-11.858936309814453,-6.472164630889893,0.6647543907165527,-38.700138092041016,-40.05170822143555,-0.5820589661598206,-0.727904736995697,-2.366314172744751,-0.8963164687156677
4312.0,-11.858964920043945,-5.505962371826172,0.6701597571372986,-44.508731842041016,-39.30327224731445,0.7524656653404236,-2.7104005813598633,-3.6786036491394043,-1.210058331489563
4489.0,-10.706586837768555,-48.749507904052734,0.8319135308265686,10.293465614318848,31.24433708190918,1.0656856298446655,1.7074429988861084,0.08612163364887238,-0.6276430487632751
4490.0,-10.706438064575195,-46.29261779785156,0.8267808556556702,7.4446492195129395,26.955387115478516,-0.9091066122055054,2.2580463886260986,0.048185911029577255,-0.1316847801208496
4491.0,-10.70628547668457,-43.922401428222656,0.817668080329895,6.005797863006592,23.326642990112305,0.861521303653717,2.740832805633545,-0.041188132017850876,-0.6353066563606262
4492.0,-10.706125259399414,-41.635807037353516,0.8057712316513062,3.642404556274414,20.119598388671875,-0.6829275488853455,3.2455923557281494,0.03443153202533722,-0.10726415365934372
4493.0,-10.705961227416992,-39.42985534667969,0.7920322418212891,2.3742551803588867,17.483816146850586,0.699042797088623,3.5878069400787354,0.02734057977795601,-0.6074290871620178
4494.0,-10.705794334411621,-37.301692962646484,0.7771706581115723,0.06180098280310631,14.68984317779541,-0.597817599773407,3.946840286254883,-0.09101564437150955,-0.14424003660678864
4495.0,-10.705621719360352,-35.24856948852539,0.7617859244346619,-1.23704195022583,12.488638877868652,0.5387516617774963,4.319186687469482,-0.08853331208229065,-0.5263550877571106
4496.0,-10.705452919006348,-33.267826080322266,0.7463364005088806,-3.2305872440338135,10.248412132263184,-0.4805651307106018,4.55670690536499,-0.048625439405441284,-0.22346605360507965
4497.0,-10.705283164978027,-31.356918334960938,0.7311992049217224,-4.604755401611328,8.156142234802246,0.4385662376880646,4.928952693939209,-0.06339487433433533,-0.46340563893318176
4498.0,-10.705109596252441,-29.513368606567383,0.7166774272918701,-6.556034564971924,6.018494606018066,-0.3565554916858673,5.1401286125183105,-0.03810512647032738,-0.19921600818634033
4499.0,-10.704940795898438,-27.734804153442383,0.7030258178710938,-7.858047008514404,4.089558124542236,0.24180659651756287,5.333797454833984,-0.05546969547867775,-0.3977142572402954
4500.0,-10.704771995544434,-26.018936157226562,0.6904404163360596,-9.59352970123291,1.9436204433441162,-0.20759722590446472,5.597008228302002,-0.07232630997896194,-0.22126127779483795
4501.0,-10.704598426818848,-24.363548278808594,0.6790870428085327,-11.092110633850098,-0.15620636940002441,0.2845960557460785,5.8679585456848145,-0.06096634641289711,-0.29621484875679016
4502.0,-10.704422950744629,-22.766511917114258,0.6691003441810608,-12.917680740356445,-2.5972354412078857,-0.11737905442714691,6.042374134063721,-0.08406877517700195,-0.3411791920661926
4503.0,-10.704245567321777,-21.22577667236328,0.6605932712554932,-14.569192886352539,-5.03483772277832,0.22654475271701813,6.3317646980285645,-0.13118581473827362,-0.43857428431510925
4504.0,-10.704069137573242,-19.739356994628906,0.6536469459533691,-16.55852699279785,-7.659923076629639,-0.10866755992174149,6.44368314743042,-0.18631087243556976,-0.3592488467693329
4505.0,-10.703893661499023,-18.305341720581055,0.6483161449432373,-18.526023864746094,-10.585747718811035,0.0034577343612909317,6.536502361297607,-0.16383342444896698,-0.39701730012893677
4506.0,-10.703725814819336,-16.92188835144043,0.6446356773376465,-20.357500076293945,-13.774415969848633,0.02405218593776226,6.443855285644531,-0.22390088438987732,-0.3833100497722626
4507.0,-10.70356559753418,-15.587224960327148,0.6426166892051697,-22.5272216796875,-17.1038875579834,0.12017429620027542,6.339393138885498,-0.2876162827014923,-0.6175005435943604
4508.0,-10.703415870666504,-14.299630165100098,0.6422469615936279,-24.607013702392578,-20.696266174316406,0.10197378695011139,6.1201558113098145,-0.3916606605052948,-0.5206665396690369
4509.0,-10.703283309936523,-13.057450294494629,0.6434776186943054,-27.30881118774414,-24.42647933959961,-0.06924226880073547,5.582664966583252,-0.46947091817855835,-0.7731984853744507
4510.0,-10.703164100646973,-11.859086036682129,0.6462197303771973,-29.466064453125,-28.19571304321289,0.19790591299533844,5.163821697235107,-0.662306547164917,-0.842891275882721
4511.0,-10.703075408935547,-10.702996253967285,0.6503501534461975,-33.049869537353516,-32.6207275390625,-0.40088963508605957,3.6980667114257812,-0.8568815588951111,-0.8365272879600525
4512.0,-10.703011512756348,-9.587684631347656,0.6557030081748962,-35.156002044677734,-35.13913345336914,0.42299315333366394,3.3343167304992676,-1.231493353843689,-0.869936466217041
4513.0,-10.702986717224121,-8.511717796325684,0.6620612740516663,-39.53068923950195,-40.61928939819336,-0.018627068027853966,0.6436359286308289,-1.8929616212844849,-1.4229371547698975
4514.0,-10.703009605407715,-7.473698139190674,0.6692114472389221,-46.56186294555664,-43.83800506591797,-1.3800972700119019,-1.8987857103347778,-3.3673341274261475,-1.835947036743164
4515.0,-10.703094482421875,-6.472270488739014,0.6769441366195679,-52.79537582397461,-47.09747314453125,0.2915646731853485,-3.8747751712799072,-4.003724575042725,-1.965484857559204
4516.0,-10.703246116638184,-5.506167888641357,0.6849208474159241,-59.64849090576172,-54.03630828857422,-0.927405834197998,-7.516120433807373,-3.301292657852173,-1.7499608993530273
4693.0,-9.590901374816895,-48.74949645996094,0.8318871259689331,10.408232688903809,31.773454666137695,1.0493296384811401,1.5498158931732178,0.1050368994474411,-0.5978296399116516
4694.0,-9.590767860412598,-46.29258728027344,0.8266581892967224,7.49576997756958,27.398744583129883,-1.003142237663269,2.0603368282318115,0.05002697929739952,-0.093044713139534
4695.0,-9.590628623962402,-43.922367095947266,0.8173757195472717,6.041744232177734,23.76415252685547,0.8864316940307617,2.4800474643707275,-0.061525944620370865,-0.5919286608695984
4696.0,-9.590483665466309,-41.63575744628906,0.805259644985199,3.2975823879241943,20.28422737121582,-0.8292693495750427,2.94144344329834,-0.013151893392205238,-0.09488449990749359
4697.0,-9.590331077575684,-39.42979049682617,0.7912735939025879,2.0231268405914307,17.676774978637695,0.6280462741851807,3.2530055046081543,-0.0158479493111372,-0.6474766135215759
4698.0,-9.590178489685059,-37.3016242980957,0.7761538028717041,-0.09335822612047195,14.97878360748291,-0.5918963551521301,3.556764841079712,-0.016750866547226906,-0.10437072813510895
4699.0,-9.590025901794434,-35.24849319458008,0.7605138421058655,-1.4260653257369995,12.739760398864746,0.5838163495063782,3.9048027992248535,-0.012993412092328072,-0.45150333642959595
4700.0,-9.589871406555176,-33.26774597167969,0.74482262134552,-3.5820558071136475,10.430258750915527,-0.5147328972816467,4.122419357299805,-0.04719921201467514,-0.2174859344959259
4701.0,-9.589715003967285,-31.356828689575195,0.7294706702232361,-4.8669657707214355,8.362300872802734,0.43355700373649597,4.4696221351623535,-0.10232662409543991,-0.41807177662849426
4702.0,-9.589560508728027,-29.513275146484375,0.71477210521698,-6.736697673797607,6.2137370109558105,-0.30896422266960144,4.663772106170654,-0.09303439408540726,-0.23954547941684723
4703.0,-9.589405059814453,-27.73470687866211,0.7009897828102112,-8.189644813537598,4.245546340942383,0.2849225699901581,4.85310697555542,-0.026717480272054672,-0.43894508481025696
4704.0,-9.589249610900879,-26.018829345703125,0.6883310675621033,-10.145393371582031,2.00722599029541,-0.25745725631713867,5.079405307769775,-0.02164560742676258,-0.2933984100818634
4705.0,-9.589093208312988,-24.363433837890625,0.676975667476654,-11.772727966308594,-0.2185969203710556,0.16620349884033203,5.329242706298828,-0.07959965616464615,-0.36380478739738464
4706.0,-9.588934898376465,-22.76639175415039,0.6670709252357483,-13.880498886108398,-2.681574821472168,-0.3073236048221588,5.491975784301758,-0.08236125111579895,-0.35999584197998047
4707.0,-9.588774681091309,-21.225648880004883,0.658742368221283,-15.592643737792969,-5.251867771148682,0.24440810084342957,5.755051136016846,-0.13195596635341644,-0.38190340995788574
4708.0,-9.588611602783203,-19.739227294921875,0.6520871520042419,-17.664588928222656,-7.897381782531738,-0.34477588534355164,5.827162742614746,-0.24599197506904602,-0.37022602558135986
4709.0,-9.588454246520996,-18.305208206176758,0.647179126739502,-19.432451248168945,-10.774782180786133,0.2878461182117462,5.888044357299805,-0.14381526410579681,-0.45813655853271484
4710.0,-9.588301658630371,-16.921754837036133,0.644070565700531,-22.042015075683594,-14.382498741149902,-0.302552729845047,5.7970356941223145,-0.1211325004696846,-0.5233998894691467
4711.0,-9.58815860748291,-15.587090492248535,0.6427960991859436,-24.12748908996582,-17.897430419921875,0.18199673295021057,5.636931419372559,-0.27379176020622253,-0.7125396132469177
4712.0,-9.588028907775879,-14.299500465393066,0.6433654427528381,-27.101362228393555,-21.86400032043457,-0.44338345527648926,5.379928112030029,-0.40473413467407227,-0.5704329013824463
4713.0,-9.58791446685791,-13.057333946228027,0.6457552909851074,-29.043821334838867,-25.943004608154297,0.27164772152900696,4.999649524688721,-0.4990493953227997,-0.7938518524169922
4714.0,-9.587828636169434,-11.858992576599121,0.649899423122406,-33.252838134765625,-30.69454574584961,-0.36952754855155945,3.692201852798462,-0.6871459484100342,-1.0100997686386108
4715.0,-9.587772369384766,-10.702934265136719,0.6557002663612366,-35.69175338745117,-34.97537612915039,0.25978943705558777,3.1148321628570557,-0.8336701393127441,-1.1063507795333862
4716.0,-9.58776569366455,-9.587677955627441,0.6630335450172424,-42.44498062133789,-41.991085052490234,-0.9778818488121033,-0.17812323570251465,-2.009765386581421,-1.960040807723999
4717.0,-9.587821006774902,-8.511788368225098,0.6718106269836426,-49.527801513671875,-47.691585540771484,-0.7962750792503357,-2.397995948791504,-2.8359525203704834,-2.6442651748657227
4718.0,-9.587983131408691,-7.473893165588379,0.6819608211517334,-60.089725494384766,-57.076988220214844,1.279270052909851,-8.944754600524902,-4.024269104003906,-3.013578176498413
4719.0,-9.58823299407959,-6.472611427307129,0.6932271718978882,-69.58942413330078,-58.61894989013672,-0.276030033826828,-14.189026832580566,-3.4212453365325928,-2.5428247451782227
4720.0,-9.588540077209473,-5.50654935836792,0.7052068114280701,-73.93990325927734,-51.815921783447266,0.2635434567928314,-14.298431396484375,-4.448985576629639,-2.3409130573272705
4897.0,-8.514525413513184,-48.74948501586914,0.8318642377853394,10.504776954650879,32.22269821166992,1.063620686531067,1.3699930906295776,0.06352213770151138,-0.6275513768196106
4898.0,-8.514403343200684,-46.292572021484375,0.8265527486801147,7.487247943878174,27.786619186401367,-1.0233863592147827,1.8401854038238525,0.10143739730119705,-0.11565481871366501
4899.0,-8.514277458190918,-43.922332763671875,0.8171238899230957,6.083209037780762,24.138904571533203,0.8887791037559509,2.1809680461883545,0.058058466762304306,-0.6335470676422119
4900.0,-8.514145851135254,-41.635711669921875,0.8048186898231506,3.4352221488952637,20.6428279876709,-0.8046203255653381,2.6220703125,0.00569175137206912,-0.09408216178417206
4901.0,-8.514008522033691,-39.42973709106445,0.7906190156936646,2.074554204940796,18.02986717224121,0.7560811042785645,2.9503824710845947,-0.023183615878224373,-0.6246428489685059
4902.0,-8.513871192932129,-37.30155944824219,0.775276780128479,-0.28156137466430664,15.212076187133789,-0.5205877423286438,3.2110466957092285,0.04830074682831764,-0.1582816243171692
4903.0,-8.513733863830566,-35.2484245300293,0.7594180703163147,-1.64797043800354,12.956108093261719,0.5591506361961365,3.5055460929870605,0.0037103367503732443,-0.5375745296478271
4904.0,-8.513596534729004,-33.267669677734375,0.7435211539268494,-3.799135446548462,10.578909873962402,-0.47937750816345215,3.6806085109710693,-0.12752969563007355,-0.24256612360477448
4905.0,-8.513457298278809,-31.356748580932617,0.727989137172699,-5.231540203094482,8.530006408691406,0.3449685275554657,4.024277210235596,-0.12482886016368866,-0.3990309536457062
4906.0,-8.51331615447998,-29.513187408447266,0.7131466269493103,-7.23875093460083,6.221550941467285,-0.3360421061515808,4.18792724609375,-0.11911540478467941,-0.19940899312496185
4907.0,-8.513176918029785,-27.734617233276367,0.6992644667625427,-8.731703758239746,4.317885875701904,0.23024609684944153,4.360339641571045,-0.11500542610883713,-0.41888427734375
4908.0,-8.513038635253906,-26.018735885620117,0.6865609884262085,-10.726734161376953,2.031083106994629,-0.12468790262937546,4.5314555168151855,-0.12818384170532227,-0.3860919773578644
4909.0,-8.512898445129395,-24.363340377807617,0.6752294898033142,-12.420355796813965,-0.15709425508975983,0.2752739489078522,4.80410623550415,-0.11569767445325851,-0.4211421012878418
4910.0,-8.512757301330566,-22.76628875732422,0.6654295325279236,-14.368605613708496,-2.609736442565918,-0.06190669909119606,4.870891094207764,-0.10926638543605804,-0.3515826463699341
4911.0,-8.512612342834473,-21.225542068481445,0.6573004126548767,-16.296266555786133,-5.360439777374268,0.19805783033370972,5.157451152801514,-0.10972291231155396,-0.3882279694080353
4912.0,-8.512466430664062,-19.73911476135254,0.65096116065979,-18.357744216918945,-7.974193096160889,-0.08431500941514969,5.155590057373047,-0.17947423458099365,-0.33547237515449524
4913.0,-8.512325286865234,-18.305091857910156,0.6465016007423401,-20.61663055419922,-11.061628341674805,0.13654564321041107,5.220596790313721,-0.11325060576200485,-0.48517757654190063
4914.0,-8.512192726135254,-16.92163848876953,0.6439967751502991,-23.158613204956055,-14.781325340270996,-0.05169361084699631,5.107285022735596,-0.21376226842403412,-0.5249872207641602
4915.0,-8.512069702148438,-15.58697509765625,0.6435080170631409,-25.74325180053711,-18.55897331237793,0.006822184193879366,4.957726001739502,-0.3390659987926483,-0.7432714104652405
4916.0,-8.51196002960205,-14.299392700195312,0.6450744271278381,-28.16131591796875,-22.700803756713867,-0.009618227370083332,4.574360370635986,-0.40514761209487915,-0.7822391986846924
4917.0,-8.511870384216309,-13.057241439819336,0.6487080454826355,-31.823030471801758,-27.573955535888672,-0.0014819287462159991,3.889944314956665,-0.5032115578651428,-0.9575247168540955
4918.0,-8.51181697845459,-11.858924865722656,0.6543846130371094,-34.4694938659668,-32.626346588134766,-0.02518460340797901,2.811227321624756,-0.693801999092102,-1.1029067039489746
4919.0,-8.51181411743164,-10.702912330627441,0.6620683073997498,-41.16469955444336,-39.54241943359375,-0.1368824988603592,0.43692824244499207,-1.3769874572753906,-1.9181082248687744
4920.0,-8.511885643005371,-9.587738990783691,0.6718207001686096,-48.09523010253906,-48.66409683227539,-0.5104060173034668,-2.4746501445770264,-2.609254837036133,-2.8458781242370605
4921.0,-8.512089729309082,-8.511996269226074,0.683837354183197,-61.06855010986328,-60.489200592041016,1.6112353801727295,-10.137755393981934,-3.275686025619507,-3.423252582550049
4922.0,-8.512413024902344,-7.474249839782715,0.6981926560401917,-68.38761138916016,-64.15365600585938,-2.552851676940918,-13.155694007873535,-3.2043001651763916,-2.344353675842285
4923.0,-8.512948036193848,-6.473137378692627,0.7150585651397705,-86.01966094970703,-73.60858154296875,-1.2617815732955933,-19.361709594726562,-7.010432720184326,-3.572939395904541
4924.0,-8.514220237731934,-5.507533550262451,0.7348852157592773,-103.48326110839844,-89.77877807617188,-1.6157457828521729,-9.95653247833252,-7.485500812530518,-1.855215311050415
4925.0,-8.516707420349121,-4.576316833496094,0.7575441598892212,-104.45458221435547,-91.64874267578125,6.6218791007995605,-0.2682276964187622,-0.9806318879127502,-0.292773962020874
5101.0,-7.476067066192627,-48.749481201171875,0.8318444490432739,10.634543418884277,32.620235443115234,1.0595070123672485,1.2165604829788208,0.023152722045779228,-0.6447096467018127
5102.0,-7.475959300994873,-46.29254913330078,0.8264628648757935,7.508795738220215,28.122936248779297,-1.0128520727157593,1.6682767868041992,0.04374554380774498,-0.13861002027988434
5103.0,-7.475846290588379,-43.92230224609375,0.816909670829773,6.034007549285889,24.451658248901367,0.962919294834137,1.9520207643508911,0.022522715851664543,-0.7075710296630859
5104.0,-7.4757304191589355,-41.635677337646484,0.8044429421424866,3.4206578731536865,20.951391220092773,-0.7204288840293884,2.3329899311065674,0.007832572795450687,-0.11013085395097733
5105.0,-7.475609302520752,-39.429691314697266,0.7900610566139221,1.9542053937911987,18.20928955078125,0.6575154662132263,2.5969278812408447,-0.02441336400806904,-0.6368175148963928
5106.0,-7.475487232208252,-37.301513671875,0.7745290398597717,-0.551058828830719,15.281881332397461,-0.7254441976547241,2.836320400238037,-0.013725986704230309,-0.18819977343082428
5107.0,-7.4753642082214355,-35.24837112426758,0.7584841251373291,-1.8313074111938477,13.184052467346191,0.5645626187324524,3.126046895980835,-0.030243976041674614,-0.6068174839019775
5108.0,-7.4752421379089355,-33.26761245727539,0.742414116859436,-3.9739110469818115,10.722367286682129,-0.38964778184890747,3.2912943363189697,-0.06416881084442139,-0.24398016929626465
5109.0,-7.475119590759277,-31.356685638427734,0.7267336249351501,-5.568958759307861,8.644221305847168,0.2770121097564697,3.577573776245117,-0.03947276994585991,-0.4075269401073456
5110.0,-7.47499418258667,-29.513120651245117,0.7117747664451599,-7.596649169921875,6.316680908203125,-0.23206493258476257,3.7145497798919678,-0.05877912417054176,-0.20912978053092957
5111.0,-7.474869728088379,-27.734540939331055,0.6978173851966858,-9.126677513122559,4.412195682525635,0.23566988110542297,3.848598003387451,-0.04883291944861412,-0.4047667384147644
5112.0,-7.47475004196167,-26.018657684326172,0.6850910782814026,-11.21182918548584,1.9818323850631714,-0.2926934063434601,4.004551410675049,-0.09866761416196823,-0.3495798408985138
5113.0,-7.474625110626221,-24.363250732421875,0.6738004684448242,-12.89710807800293,-0.20698213577270508,0.02669215016067028,4.272483825683594,-0.08314575999975204,-0.4098184406757355
5114.0,-7.474501609802246,-22.766202926635742,0.6641184687614441,-14.848320960998535,-2.714522361755371,-0.09675049036741257,4.304703235626221,-0.08926023542881012,-0.4034464657306671
5115.0,-7.4743733406066895,-21.22545051574707,0.6562004685401917,-17.00678825378418,-5.5184407234191895,-0.0707559660077095,4.529443740844727,-0.03226643428206444,-0.47601038217544556
5116.0,-7.474244117736816,-19.7390193939209,0.6501855850219727,-19.093114852905273,-8.209473609924316,0.012022807262837887,4.582363605499268,-0.03941058740019798,-0.32886895537376404
5117.0,-7.474121570587158,-18.304994583129883,0.6461822986602783,-21.430938720703125,-11.330461502075195,-0.1463538557291031,4.40544319152832,-0.007024169433861971,-0.47769635915756226
5118.0,-7.474007606506348,-16.921539306640625,0.6442916393280029,-23.911712646484375,-15.07158088684082,0.21142162382602692,4.35724401473999,-0.22016623616218567,-0.4821987748146057
5119.0,-7.473906517028809,-15.586877822875977,0.6446061134338379,-26.64487075805664,-18.98896598815918,-0.36391881108283997,4.106746196746826,-0.17598870396614075,-0.6374339461326599
5120.0,-7.47381591796875,-14.29930305480957,0.6471991539001465,-29.176620483398438,-23.598308563232422,0.5683782696723938,3.922496795654297,-0.34218981862068176,-0.9437838196754456
5121.0,-7.473759174346924,-13.057173728942871,0.6521286368370056,-33.178836822509766,-29.263761520385742,-0.5855494141578674,2.5029103755950928,-0.3632117509841919,-0.9985432028770447
5122.0,-7.473740577697754,-11.858885765075684,0.6594319343566895,-37.49446487426758,-34.459075927734375,0.30497637391090393,1.7213536500930786,-0.8369321227073669,-1.4801846742630005
5123.0,-7.4738006591796875,-10.702940940856934,0.6692370772361755,-44.117698669433594,-46.23337173461914,-1.4124058485031128,-2.090132713317871,-1.7409800291061401,-3.3887197971343994
5124.0,-7.473999500274658,-9.587909698486328,0.6819881796836853,-57.354183197021484,-59.53394317626953,1.2856470346450806,-9.234192848205566,-2.9312281608581543,-4.0256667137146
5125.0,-7.474356651306152,-8.512325286865234,0.6982093453407288,-64.9625244140625,-67.676513671875,-2.5666086673736572,-13.270478248596191,-2.5467584133148193,-3.168501138687134
5126.0,-7.4749836921691895,-7.474884986877441,0.7189137935638428,-84.9310302734375,-84.63707733154297,0.6332369446754456,-19.18782615661621,-6.355044841766357,-6.3462300300598145
5127.0,-7.476883411407471,-6.474871635437012,0.7464239597320557,-103.04254913330078,-98.22277069091797,3.8225951194763184,-4.12656831741333,-3.280672311782837,-2.4570906162261963
5128.0,-7.4812541007995605,-5.511448383331299,0.7824234962463379,-104.66210174560547,-100.27619934082031,2.042330741882324,-2.5081350803375244,-3.3409554958343506,-5.760622024536133
5129.0,-7.487895965576172,-4.5823845863342285,0.8272146582603455,-114.63469696044922,-101.4791259765625,-17.716325759887695,-5.815540790557861,-19.81633186340332,-11.468756675720215
5305.0,-6.474196434020996,-48.74947738647461,0.8318285942077637,10.646645545959473,32.89328384399414,0.9900504350662231,1.0193253755569458,0.00832486990839243,-0.5962138772010803
5306.0,-6.47410249710083,-46.292537689208984,0.826388418674469,7.574786186218262,28.44708251953125,-0.930137574672699,1.4242161512374878,-0.008650959469377995,-0.10459373891353607
5307.0,-6.474002838134766,-43.92227554321289,0.8167294263839722,5.988424301147461,24.643049240112305,0.7911238074302673,1.6895331144332886,-0.047446396201848984,-0.7348113656044006
5308.0,-6.473899841308594,-41.63564682006836,0.8041266798973083,3.3381056785583496,21.13097381591797,-0.7832914590835571,2.0247294902801514,-0.009662018157541752,-0.1383795142173767
5309.0,-6.4737935066223145,-39.429656982421875,0.789591908454895,1.9094792604446411,18.462648391723633,0.7328472137451172,2.2586145401000977,0.05618012696504593,-0.6696320176124573
5310.0,-6.473687171936035,-37.30146789550781,0.7739013433456421,-0.5548019409179688,15.514731407165527,-0.5846384167671204,2.496061086654663,0.01109492126852274,-0.17460471391677856
5311.0,-6.473579406738281,-35.24831771850586,0.7577000856399536,-1.9700499773025513,13.374879837036133,0.49052733182907104,2.746267795562744,-0.02338346652686596,-0.6034638285636902
5312.0,-6.473473072052002,-33.26755142211914,0.7414865493774414,-4.234500408172607,10.823943138122559,-0.28263792395591736,2.8422510623931885,0.027581796050071716,-0.2210020124912262
5313.0,-6.4733662605285645,-31.356626510620117,0.7256842255592346,-5.867911338806152,8.719742774963379,0.32742616534233093,3.102079391479492,-0.04741143807768822,-0.44995781779289246
5314.0,-6.473258018493652,-29.513059616088867,0.7106318473815918,-7.8426899909973145,6.43015718460083,-0.20177246630191803,3.2397828102111816,-0.09396123886108398,-0.267853707075119
5315.0,-6.473149299621582,-27.734477996826172,0.6966189742088318,-9.410513877868652,4.478826999664307,0.2044236958026886,3.3478567600250244,-0.0067837415263056755,-0.4122106432914734
5316.0,-6.473045349121094,-26.018583297729492,0.6838845610618591,-11.388144493103027,2.1520650386810303,-0.10185105353593826,3.4626879692077637,-0.019184498116374016,-0.3145798444747925
5317.0,-6.472938060760498,-24.363176345825195,0.6726453304290771,-13.37401008605957,-0.25482049584388733,0.008018461056053638,3.7018086910247803,-0.054878536611795425,-0.3662591576576233
5318.0,-6.472828388214111,-22.76612663269043,0.6630868315696716,-15.423981666564941,-2.785926580429077,0.030209539458155632,3.72214674949646,-0.017956914380192757,-0.3701495826244354
5319.0,-6.472718238830566,-21.225374221801758,0.6553797721862793,-17.540098190307617,-5.580062389373779,0.012928507290780544,3.8759024143218994,-0.1158435195684433,-0.4379149079322815
5320.0,-6.472607612609863,-19.73893928527832,0.6496824622154236,-19.694215774536133,-8.323265075683594,0.2516591548919678,3.8998701572418213,-0.0781596302986145,-0.30707666277885437
5321.0,-6.472504138946533,-18.304914474487305,0.6461260914802551,-22.224714279174805,-11.685263633728027,-0.24124553799629211,3.768455982208252,-0.1248471811413765,-0.6214452385902405
5322.0,-6.472411155700684,-16.92146110534668,0.6448385119438171,-24.636104583740234,-15.346373558044434,0.2936924993991852,3.6360299587249756,-0.07879085093736649,-0.5090193152427673
5323.0,-6.472325325012207,-15.586800575256348,0.6459460258483887,-27.312009811401367,-19.36570930480957,-0.28681376576423645,3.4476704597473145,-0.20389403402805328,-0.7452573180198669
5324.0,-6.472259044647217,-14.299238204956055,0.6495581269264221,-30.473085403442383,-24.800138473510742,0.10547308623790741,2.9017930030822754,-0.12062068283557892,-1.0031108856201172
5325.0,-6.472225666046143,-13.057126998901367,0.6557970643043518,-33.271026611328125,-30.142894744873047,-0.029185952618718147,1.8432104587554932,-0.48003166913986206,-0.9912905693054199
5326.0,-6.472263813018799,-11.858880996704102,0.6647821068763733,-39.935054779052734,-38.120609283447266,-0.3831787407398224,-1.051897406578064,-0.9352983236312866,-2.411172866821289
5327.0,-6.472377300262451,-10.703032493591309,0.6769875884056091,-47.49704360961914,-52.59506607055664,0.10008986294269562,-4.134297847747803,-1.920080304145813,-4.011449813842773
5328.0,-6.472724914550781,-9.588162422180176,0.693274974822998,-58.92574691772461,-69.06221771240234,-0.1454017013311386,-14.406083106994629,-2.5055205821990967,-3.4542593955993652
5329.0,-6.4732584953308105,-8.512870788574219,0.7150983214378357,-74.2564926147461,-85.81016540527344,-1.3579901456832886,-19.941373825073242,-3.3270833492279053,-6.921017169952393
5330.0,-6.474975109100342,-7.47678279876709,0.7464327812194824,-98.98603057861328,-102.18209838867188,3.7169647216796875,-3.937349557876587,-2.2941668033599854,-3.3763883113861084
5331.0,-6.479977130889893,-6.479869842529297,0.7926461696624756,-106.19725036621094,-106.38343048095703,-8.059178352355957,-4.704711437225342,-6.8351216316223145,-6.516590118408203
5332.0,-6.488574028015137,-5.51982307434082,0.8579692840576172,-109.93836975097656,-107.15550994873047,-22.245445251464844,-10.4379301071167,-22.59886932373047,-17.190170288085938
5333.0,-6.500439167022705,-4.593571186065674,0.9442671537399292,-114.99656677246094,-89.80157470703125,-51.989131927490234,-37.566097259521484,-8.35878849029541,-2.1745824813842773
5509.0,-5.5076212882995605,-48.749473571777344,0.8318156599998474,10.811369895935059,33.17081069946289,1.007207989692688,0.8553834557533264,0.003966832999140024,-0.6715682744979858
5510.0,-5.507541179656982,-46.29251480102539,0.826327383518219,7.807064056396484,28.789321899414062,-0.8588393926620483,1.2413859367370605,0.04885806143283844,-0.1467357724905014
5511.0,-5.5074543952941895,-43.922264099121094,0.8165816068649292,6.070723533630371,24.900127410888672,0.7975627183914185,1.458215594291687,0.045132897794246674,-0.7144362926483154
5512.0,-5.507365703582764,-41.635616302490234,0.8038655519485474,3.327688217163086,21.31519889831543,-0.7494803667068481,1.7431801557540894,0.0011888270964846015,-0.16383010149002075
5513.0,-5.507274150848389,-39.42962646484375,0.7892036437988281,1.8184863328933716,18.59963035583496,0.5748080611228943,1.915589451789856,0.010896884836256504,-0.7049770951271057
5514.0,-5.507183074951172,-37.30142593383789,0.773381769657135,-0.566382884979248,15.717438697814941,-0.49240949749946594,2.1275758743286133,-0.0613587461411953,-0.17138653993606567
5515.0,-5.5070905685424805,-35.2482795715332,0.7570520043373108,-2.1691949367523193,13.433945655822754,0.3196825087070465,2.340726852416992,0.013578897342085838,-0.6760674715042114
5516.0,-5.50700044631958,-33.267513275146484,0.7407209873199463,-4.265163898468018,10.95077133178711,-0.23423554003238678,2.386305093765259,0.04835852235555649,-0.31149277091026306
5517.0,-5.506908893585205,-31.356578826904297,0.7248196005821228,-5.978463172912598,8.768462181091309,0.09077353775501251,2.6667425632476807,-0.051015522330999374,-0.473503053188324
5518.0,-5.5068135261535645,-29.513002395629883,0.709693968296051,-7.852995872497559,6.636385917663574,-0.10143428295850754,2.820622444152832,-0.06297742575407028,-0.23221087455749512
5519.0,-5.506722450256348,-27.734420776367188,0.6956411600112915,-9.71929931640625,4.441704273223877,0.012784725055098534,2.8767855167388916,-0.003456879872828722,-0.4302525222301483
5520.0,-5.506634712219238,-26.018526077270508,0.6829096078872681,-11.697223663330078,2.1983163356781006,0.1448899358510971,2.9195141792297363,-0.057165976613759995,-0.33457040786743164
5521.0,-5.506545066833496,-24.363117218017578,0.6717251539230347,-13.924509048461914,-0.3835262060165405,-0.19279445707798004,3.0953049659729004,-0.15042032301425934,-0.3355277180671692
5522.0,-5.50645112991333,-22.76606559753418,0.6622867584228516,-15.587636947631836,-2.7150251865386963,0.3657786548137665,3.150632858276367,-0.14831697940826416,-0.3432682752609253
5523.0,-5.506358623504639,-21.225309371948242,0.6547794938087463,-18.057199478149414,-5.79273796081543,-0.6010617613792419,3.2716240882873535,-0.08115845173597336,-0.43303319811820984
5524.0,-5.506265640258789,-19.738874435424805,0.6493825912475586,-19.73863983154297,-8.341643333435059,0.6821738481521606,3.2819552421569824,-0.024443330243229866,-0.25645968317985535
5525.0,-5.506179332733154,-18.304847717285156,0.6462461948394775,-22.751895904541016,-11.953194618225098,-0.8890871405601501,3.1055164337158203,0.020464451983571053,-0.6753394603729248
5526.0,-5.506105422973633,-16.92139434814453,0.6455338001251221,-24.684053421020508,-15.621186256408691,1.0666228532791138,2.7701685428619385,-0.06920740753412247,-0.39870262145996094
5527.0,-5.506039619445801,-15.586739540100098,0.6473920345306396,-28.236698150634766,-19.76365852355957,-1.2686511278152466,2.7217392921447754,-0.11325697600841522,-0.9931511282920837
5528.0,-5.505993366241455,-14.299187660217285,0.6519882082939148,-30.504730224609375,-25.605484008789062,1.2878170013427734,1.9739856719970703,-0.2192157804965973,-0.9998074173927307
5529.0,-5.505984783172607,-13.05709171295166,0.6594877243041992,-35.097713470458984,-30.805418014526367,-1.664379358291626,1.2822939157485962,-0.36371514201164246,-1.2166234254837036
5530.0,-5.5060648918151855,-11.858916282653809,0.6702010631561279,-39.345829010009766,-44.191532135009766,1.0799916982650757,-3.1396291255950928,-1.2000104188919067,-3.735280752182007
5531.0,-5.506280899047852,-10.703191757202148,0.6849813461303711,-54.54629135131836,-59.585758209228516,-1.4085007905960083,-8.028508186340332,-1.9238547086715698,-3.4855308532714844
5532.0,-5.506672382354736,-9.588479042053223,0.7052813768386841,-52.40001678466797,-73.43106079101562,0.8559817671775818,-14.903212547302246,-2.27488112449646,-4.350491046905518
5533.0,-5.507668495178223,-8.514145851135254,0.7349491715431213,-90.68238067626953,-102.52387237548828,-1.8540211915969849,-9.810592651367188,-1.7186062335968018,-7.172069549560547
5534.0,-5.511555194854736,-7.481128692626953,0.7824361324310303,-101.02755737304688,-104.49713134765625,2.1310784816741943,-2.734363555908203,-5.761685371398926,-3.746091604232788
5535.0,-5.519932270050049,-6.488415241241455,0.8579453229904175,-107.62925720214844,-108.61150360107422,-21.58561897277832,-10.460948944091797,-16.858070373535156,-22.434404373168945
5536.0,-5.533053398132324,-5.532878398895264,0.9698882699012756,-91.50817108154297,-89.77165222167969,-42.59675216674805,-44.584083557128906,3.8694419860839844,3.5020830631256104
5537.0,-5.551726818084717,-4.6116719245910645,1.1090842485427856,-8.48146915435791,14.818727493286133,13.518271446228027,-60.83016586303711,22.16419219970703,10.876128196716309
5713.0,-4.575098037719727,-48.749473571777344,0.8318051695823669,10.84554386138916,33.403865814208984,1.162676453590393,0.6902307868003845,0.043528392910957336,-0.7697849869728088
5714.0,-4.57503080368042,-46.292510986328125,0.8262778520584106,7.637986183166504,28.89474105834961,-1.052958607673645,1.069294810295105,0.07425296306610107,-0.18284250795841217
5715.0,-4.57495641708374,-43.922245025634766,0.8164619207382202,6.229072093963623,25.17485809326172,0.9894407987594604,1.2386999130249023,0.019729269668459892,-0.6929432153701782
5716.0,-4.5748820304870605,-41.63559341430664,0.8036545515060425,3.4655096530914307,21.535755157470703,-0.7200055718421936,1.4694154262542725,-0.020809782668948174,-0.17502214014530182
5717.0,-4.574806213378906,-39.42959976196289,0.7888885140419006,1.8655683994293213,18.782777786254883,0.7164391875267029,1.595094919204712,0.061502955853939056,-0.7892012596130371
5718.0,-4.574729919433594,-37.3014030456543,0.7729591727256775,-0.6882897019386292,15.877419471740723,-0.5928612351417542,1.7892056703567505,-0.03090943768620491,-0.16166843473911285
5719.0,-4.574653148651123,-35.24824523925781,0.7565250396728516,-2.230893850326538,13.559683799743652,0.5813872814178467,1.9691545963287354,-0.027518169954419136,-0.6823440790176392
5720.0,-4.574577331542969,-33.26747512817383,0.7400999665260315,-4.522737503051758,10.996814727783203,-0.405873566865921,2.0198423862457275,-0.02429046854376793,-0.3153132200241089
5721.0,-4.5745015144348145,-31.356538772583008,0.724120557308197,-6.079803466796875,8.849601745605469,0.3116931915283203,2.2279365062713623,-0.037990376353263855,-0.44519779086112976
5722.0,-4.574421405792236,-29.51296615600586,0.708938479423523,-8.145373344421387,6.698788166046143,-0.29402509331703186,2.3054182529449463,-0.06401283293962479,-0.23654749989509583
5723.0,-4.574347019195557,-27.734375,0.6948571801185608,-10.016404151916504,4.373474597930908,0.12616212666034698,2.2912778854370117,-0.0018175861332565546,-0.38675934076309204
5724.0,-4.574275970458984,-26.01848030090332,0.6821346879005432,-12.04843521118164,2.1701529026031494,-0.2614939212799072,2.4241297245025635,-0.11457300931215286,-0.311553031206131
5725.0,-4.5742011070251465,-24.363069534301758,0.6710038781166077,-13.859131813049316,-0.3317723572254181,0.10031227767467499,2.6204659938812256,-0.10896311700344086,-0.32953155040740967
5726.0,-4.574123382568359,-22.766010284423828,0.6616776585578918,-15.862955093383789,-2.716068744659424,0.04860561341047287,2.7106828689575195,-0.2155693620443344,-0.4019717872142792
5727.0,-4.574046611785889,-21.225255966186523,0.6543518900871277,-18.24481964111328,-5.885986804962158,-0.08879595994949341,2.6246302127838135,0.07270849496126175,-0.4301449954509735
5728.0,-4.573970794677734,-19.73881721496582,0.6492254137992859,-20.329999923706055,-8.522849082946777,0.06745728850364685,2.667811393737793,-0.13486002385616302,-0.3793940246105194
5729.0,-4.573901653289795,-18.304794311523438,0.6464688777923584,-22.797895431518555,-12.10841178894043,-0.13621605932712555,2.411235809326172,0.1981808990240097,-0.6356578469276428
5730.0,-4.5738444328308105,-16.92134666442871,0.6462792754173279,-25.01923942565918,-15.848001480102539,0.426361620426178,2.2702338695526123,-0.26282069087028503,-0.4526485800743103
5731.0,-4.573798656463623,-15.586700439453125,0.6488255858421326,-28.239933013916016,-20.42390251159668,-0.7210954427719116,1.8172428607940674,0.31708505749702454,-0.9040747284889221
5732.0,-4.5737690925598145,-14.299156188964844,0.6543333530426025,-30.509550094604492,-25.415082931518555,0.866439700126648,1.4729647636413574,-0.4674839377403259,-1.0602465867996216
5733.0,-4.573787689208984,-13.057077407836914,0.6630105376243591,-34.916507720947266,-32.16166687011719,-1.2578705549240112,-0.3563065826892853,0.021510057151317596,-1.3684741258621216
5734.0,-4.573883056640625,-11.858963966369629,0.6754489541053772,-39.637264251708984,-48.02456283569336,0.8953694105148315,-2.4341115951538086,-1.573758602142334,-4.768123626708984
5735.0,-4.574220657348633,-10.703378677368164,0.6928350925445557,-52.35211944580078,-67.24364471435547,-0.7470561265945435,-14.035491943359375,-1.1430610418319702,-2.892717123031616
5736.0,-4.5746169090271,-9.588957786560059,0.7175775170326233,-60.06542205810547,-91.59612274169922,-1.450292706489563,-12.568502426147461,-2.577646255493164,-10.874019622802734
5737.0,-4.57647705078125,-8.516647338867188,0.7576513290405273,-93.50218200683594,-103.77716064453125,4.662954330444336,-0.7470783591270447,-0.34648579359054565,-1.1439599990844727
5738.0,-4.582490921020508,-7.487743377685547,0.8272410035133362,-101.72935485839844,-113.10667419433594,-16.14942169189453,-5.533295631408691,-11.992685317993164,-19.967775344848633
5739.0,-4.593693256378174,-6.500209808349609,0.9441786408424377,-90.47688293457031,-114.99201202392578,-54.25070571899414,-37.92568588256836,-2.3575117588043213,-7.495345115661621
5740.0,-4.611842632293701,-5.551509857177734,1.108972430229187,16.144441604614258,-5.952385902404785,15.821700096130371,-60.860198974609375,11.016358375549316,22.39044189453125
5741.0,-4.635780334472656,-4.635605335235596,1.2904281616210938,89.32505798339844,90.05609130859375,20.789886474609375,-32.69527816772461,32.975337982177734,31.777036666870117
5917.0,-3.6754281520843506,-48.74946594238281,0.8317975401878357,11.042333602905273,33.672786712646484,1.3260596990585327,0.5510295033454895,-0.014514558017253876,-0.7068731784820557
5918.0,-3.6753735542297363,-46.29250717163086,0.8262390494346619,7.791947364807129,29.091203689575195,-1.1680372953414917,0.9249653816223145,-0.01393041666597128,-0.13239280879497528
5919.0,-3.675311803817749,-43.92223358154297,0.8163658380508423,6.269086837768555,25.264633178710938,0.9181256890296936,1.017267107963562,0.0036028751637786627,-0.7304105162620544
5920.0,-3.675250768661499,-41.63557815551758,0.8034858107566833,3.3133339881896973,21.591331481933594,-0.924423098564148,1.199817180633545,-0.030588163062930107,-0.17221203446388245
5921.0,-3.675189733505249,-39.42958068847656,0.7886388301849365,1.7955083847045898,18.868703842163086,0.8323550820350647,1.318638801574707,0.0198905598372221,-0.7210121750831604
5922.0,-3.6751291751861572,-37.3013801574707,0.7726249098777771,-0.8753977417945862,15.91585636138916,-0.8279313445091248,1.4425803422927856,-0.029775936156511307,-0.1374557465314865
5923.0,-3.6750659942626953,-35.24821853637695,0.7561087012290955,-2.164497137069702,13.679510116577148,0.6907433867454529,1.5946154594421387,-0.06851917505264282,-0.6420863270759583
5924.0,-3.6750054359436035,-33.267452239990234,0.7396094799041748,-4.676562786102295,11.025093078613281,-0.6801230907440186,1.6194798946380615,-0.03567187115550041,-0.2151733934879303
5925.0,-3.67494535446167,-31.356508255004883,0.7235698103904724,-6.1397247314453125,8.947358131408691,0.6799282431602478,1.8413227796554565,-0.022216958925127983,-0.4184623062610626
5926.0,-3.6748807430267334,-29.512935638427734,0.708344578742981,-8.455309867858887,6.65993595123291,-0.5766401290893555,1.8916447162628174,0.024421749636530876,-0.2702464759349823
5927.0,-3.674821376800537,-27.734342575073242,0.6942448019981384,-9.8963041305542,4.598236560821533,0.6255660057067871,1.8755320310592651,0.04497018828988075,-0.3351423144340515
5928.0,-3.674765110015869,-26.01844596862793,0.6815328598022461,-12.228699684143066,2.178252935409546,-0.5565869808197021,1.9336403608322144,-0.1603543609380722,-0.3285059928894043
5929.0,-3.6747055053710938,-24.363033294677734,0.6704520583152771,-13.82453727722168,-0.21460124850273132,0.6254304051399231,2.0383245944976807,-0.12033230811357498,-0.3899035155773163
5930.0,-3.6746439933776855,-22.765974044799805,0.6612229347229004,-16.393293380737305,-2.9259989261627197,-0.731023907661438,2.1225545406341553,-0.12008260935544968,-0.39455127716064453
5931.0,-3.6745829582214355,-21.2252140045166,0.6540555357933044,-18.0427303314209,-5.748116493225098,0.8603992462158203,2.150658369064331,0.0492873415350914,-0.3016272783279419
5932.0,-3.6745240688323975,-19.73877716064453,0.6491599678993225,-20.9715518951416,-8.844425201416016,-1.0438796281814575,2.1945083141326904,-0.11600649356842041,-0.4385700523853302
5933.0,-3.6744706630706787,-18.30475425720215,0.6467335820198059,-22.544919967651367,-12.207871437072754,1.109150767326355,1.8820371627807617,0.12405206263065338,-0.6045728325843811
5934.0,-3.6744275093078613,-16.921308517456055,0.6469898223876953,-25.54957389831543,-16.162752151489258,-1.212767481803894,1.6391993761062622,-0.16271211206912994,-0.5742714405059814
5935.0,-3.674398183822632,-15.586671829223633,0.6501440405845642,-27.42152214050293,-20.924470901489258,1.3688116073608398,1.1414905786514282,0.0557173416018486,-0.8996381759643555
5936.0,-3.674386739730835,-14.299139022827148,0.656447172164917,-30.987226486206055,-25.155838012695312,-1.5214169025421143,0.8062504529953003,0.08213978260755539,-0.7767638564109802
5937.0,-3.6744227409362793,-13.057088851928711,0.6662002205848694,-33.855892181396484,-34.43410873413086,1.275879979133606,-1.1726409196853638,-0.6785531640052795,-2.483915090560913
5938.0,-3.6745362281799316,-11.859025001525879,0.6802625060081482,-41.7510986328125,-49.942928314208984,-2.2161271572113037,-3.680602550506592,-0.3421439826488495,-3.748530864715576
5939.0,-3.674898624420166,-10.703558921813965,0.7001776099205017,-42.59518814086914,-71.99858856201172,2.3991167545318604,-13.334592819213867,-2.1115496158599854,-4.576089382171631
5940.0,-3.675457000732422,-9.58973217010498,0.7297141551971436,-77.81897735595703,-102.37561798095703,-5.096799850463867,-11.787772178649902,-0.380262166261673,-9.119624137878418
5941.0,-3.6782307624816895,-8.52016544342041,0.7815409302711487,-94.09654998779297,-104.07245635986328,7.3626556396484375,-0.022504065185785294,-6.75297212600708,-4.180057048797607
5942.0,-3.685364246368408,-7.495795249938965,0.8791183233261108,-98.83831024169922,-111.54674530029297,-31.796199798583984,-14.230095863342285,-7.8597025871276855,-26.96693229675293
5943.0,-3.698853015899658,-6.515191078186035,1.0420912504196167,-8.325671195983887,-66.90628051757812,-1.5369566679000854,-51.57386016845703,5.002281188964844,22.29901123046875
5944.0,-3.7199039459228516,-5.5738911628723145,1.2494813203811646,89.28335571289062,62.287471771240234,21.312551498413086,-39.70204162597656,27.438411712646484,34.33906173706055
5945.0,-3.7427785396575928,-4.658081531524658,1.4590644836425781,131.11207580566406,136.62123107910156,13.91295051574707,9.598922729492188,41.393245697021484,46.78229522705078
6121.0,-2.8074533939361572,-48.74945831298828,0.8317919969558716,10.985822677612305,33.719905853271484,1.072281002998352,0.41976335644721985,-0.027903780341148376,-0.6303272247314453
6122.0,-2.8074111938476562,-46.292503356933594,0.826210081577301,7.834423542022705,29.240299224853516,-1.0089598894119263,0.7414283156394958,0.04459273815155029,-0.13990789651870728
6123.0,-2.807361602783203,-43.922218322753906,0.8162935972213745,6.122730731964111,25.320045471191406,0.8586506247520447,0.7848209738731384,0.08930245041847229,-0.71359783411026
6124.0,-2.807314395904541,-41.635562896728516,0.8033570051193237,3.38023042678833,21.81048583984375,-0.6739459037780762,0.9399946928024292,0.09396355599164963,-0.12854574620723724
6125.0,-2.807267904281616,-39.429561614990234,0.7884478569030762,1.7398443222045898,18.870988845825195,0.5535977482795715,1.0299574136734009,0.06054464355111122,-0.5874753594398499
6126.0,-2.8072214126586914,-37.30135726928711,0.772369921207428,-0.6647710204124451,16.075698852539062,-0.5541732311248779,1.1119509935379028,-0.03309326991438866,-0.17578279972076416
6127.0,-2.8071727752685547,-35.24819564819336,0.7557925581932068,-2.325450897216797,13.740419387817383,0.4653932452201843,1.2312418222427368,-0.08629799634218216,-0.6942992806434631
6128.0,-2.8071274757385254,-33.267425537109375,0.7392373085021973,-4.650041580200195,11.105889320373535,-0.41094207763671875,1.2089232206344604,-0.03604918345808983,-0.1963219791650772
6129.0,-2.807081699371338,-31.356487274169922,0.7231523990631104,-6.3123064041137695,8.937175750732422,0.276957243680954,1.4148732423782349,-0.03549589216709137,-0.46030810475349426
6130.0,-2.8070333003997803,-29.512907028198242,0.7078952193260193,-8.565545082092285,6.640586853027344,-0.18106120824813843,1.3942281007766724,0.03445575758814812,-0.28516682982444763
6131.0,-2.8069887161254883,-27.73431396484375,0.6937838196754456,-10.35400390625,4.612136363983154,0.13904060423374176,1.4196473360061646,-0.033586081117391586,-0.36666303873062134
6132.0,-2.806946039199829,-26.018415451049805,0.6810827255249023,-12.329123497009277,2.0070784091949463,-0.06318316608667374,1.4627772569656372,-0.07758194953203201,-0.33752381801605225
6133.0,-2.806901454925537,-24.363004684448242,0.6700440049171448,-14.068947792053223,-0.10150306671857834,0.03277622163295746,1.6016333103179932,-0.13476932048797607,-0.545210063457489
6134.0,-2.806854486465454,-22.765941619873047,0.6608924269676208,-16.29456901550293,-2.9704384803771973,0.08490721881389618,1.576763391494751,0.006320309359580278,-0.2897386848926544
6135.0,-2.806809902191162,-21.225181579589844,0.6538546085357666,-18.50819206237793,-5.759668350219727,-0.2211625725030899,1.6111096143722534,-0.15977148711681366,-0.3712327182292938
6136.0,-2.806764841079712,-19.738746643066406,0.6491448879241943,-20.319562911987305,-8.821600914001465,0.371273010969162,1.5387009382247925,0.039039742201566696,-0.310719758272171
6137.0,-2.80672550201416,-18.304723739624023,0.6469894051551819,-22.780881881713867,-12.221355438232422,-0.355881005525589,1.424793004989624,-0.06888756155967712,-0.7092280983924866
6138.0,-2.8066954612731934,-16.921279907226562,0.6476051211357117,-24.84306526184082,-16.306716918945312,0.5217456221580505,1.2651194334030151,0.11946570128202438,-0.46176451444625854
6139.0,-2.806678533554077,-15.586655616760254,0.6512625217437744,-27.647151947021484,-21.386075973510742,-0.796784520149231,0.7874792814254761,-0.3232922852039337,-1.2464193105697632
6140.0,-2.806682586669922,-14.299131393432617,0.658217191696167,-29.26310920715332,-24.886091232299805,1.3177884817123413,0.12321291863918304,0.6341362595558167,-0.08706307411193848
6141.0,-2.8067259788513184,-13.057106971740723,0.6688995957374573,-34.66067123413086,-36.962127685546875,-2.6453895568847656,-1.5302653312683105,-1.1392210721969604,-4.250777721405029
6142.0,-2.8068583011627197,-11.859114646911621,0.6843982338905334,-37.773250579833984,-51.530067443847656,3.5606839656829834,-5.58040714263916,0.5699997544288635,-1.5030004978179932
6143.0,-2.8071577548980713,-10.703728675842285,0.7066137790679932,-40.7556037902832,-73.76380157470703,-6.084786415100098,-10.691529273986816,-2.1214449405670166,-8.601666450500488
6144.0,-2.8080086708068848,-9.59103012084961,0.7412419319152832,-81.94647979736328,-94.63129425048828,8.799185752868652,-8.677748680114746,0.4606691002845764,-3.382725238800049
6145.0,-2.8112294673919678,-8.524169921875,0.805262565612793,-110.41730499267578,-115.19903564453125,-16.809110641479492,-1.5935947895050049,-6.424952983856201,-20.665557861328125
6146.0,-2.8183650970458984,-7.504366874694824,0.932270884513855,-80.7266616821289,-132.95091247558594,-59.148677825927734,-24.158750534057617,-12.873833656311035,-9.729928016662598
6147.0,-2.832197427749634,-6.531280994415283,1.134626030921936,55.938751220703125,-35.79544448852539,16.069040298461914,-36.70399856567383,10.39115047454834,32.24606704711914
6148.0,-2.851925849914551,-5.594540119171143,1.3722704648971558,120.32709503173828,115.24915313720703,18.249345779418945,-5.709407329559326,24.17542266845703,49.84599304199219
6325.0,-1.9700576066970825,-48.74945831298828,0.831788182258606,10.949225425720215,33.74580764770508,0.8412469625473022,0.26693907380104065,-0.045965198427438736,-0.6247847080230713
6326.0,-1.970027208328247,-46.29248809814453,0.8261899948120117,8.009437561035156,29.446256637573242,-0.6396990418434143,0.5455443263053894,0.02571280114352703,-0.22895024716854095
6327.0,-1.969990849494934,-43.92221450805664,0.8162422776222229,5.978274345397949,25.369783401489258,0.691179633140564,0.5744608044624329,-0.0006612564902752638,-0.6698818206787109
6328.0,-1.969956636428833,-41.635555267333984,0.8032650947570801,3.3886873722076416,21.882965087890625,-0.5663757920265198,0.7092981934547424,-0.04864981397986412,-0.13258634507656097
6329.0,-1.9699227809906006,-39.42955017089844,0.7883113622665405,1.7183988094329834,18.90917205810547,0.4373355507850647,0.7020255327224731,0.01493939757347107,-0.6542561054229736
6330.0,-1.9698904752731323,-37.30134582519531,0.7721875905990601,-0.6309654712677002,16.199308395385742,-0.25672242045402527,0.7875727415084839,0.008655205368995667,-0.23340299725532532
6331.0,-1.969857096672058,-35.2481803894043,0.755565881729126,-2.5111923217773438,13.776535987854004,0.25085094571113586,0.9237971901893616,-0.06769532710313797,-0.7099732756614685
6332.0,-1.9698256254196167,-33.26740646362305,0.7389709949493408,-4.525295734405518,11.203653335571289,0.04088513180613518,0.8785881400108337,0.022828835994005203,-0.15131865441799164
6333.0,-1.9697940349578857,-31.35647201538086,0.7228551506996155,-6.574741840362549,8.906331062316895,-0.17501069605350494,0.9898901581764221,-0.02936658263206482,-0.5072880387306213
6334.0,-1.969760775566101,-29.51289176940918,0.7075749635696411,-8.335869789123535,6.747946739196777,0.2702147662639618,1.0646857023239136,-0.018825367093086243,-0.29596301913261414
6335.0,-1.9697304964065552,-27.734294891357422,0.69345623254776,-10.405167579650879,4.624902725219727,-0.528523862361908,1.0184987783432007,-0.09231399744749069,-0.4764114022254944
6336.0,-1.9697017669677734,-26.01839828491211,0.6807646155357361,-11.99343204498291,2.1267588138580322,0.6773738265037537,1.0762015581130981,0.03610784932971001,-0.2115018516778946
6337.0,-1.9696712493896484,-24.362977981567383,0.6697582602500916,-14.561545372009277,-0.12925559282302856,-0.7867521047592163,1.1578541994094849,-0.09580066800117493,-0.6220030188560486
6338.0,-1.9696396589279175,-22.76591682434082,0.6606641411781311,-16.051668167114258,-3.052504062652588,1.1529974937438965,1.1378077268600464,-0.03106309287250042,-0.2111389935016632
6339.0,-1.9696084260940552,-21.22515869140625,0.6537237167358398,-18.861318588256836,-5.678544998168945,-1.3112077713012695,1.115054726600647,-0.19186033308506012,-0.688471257686615
6340.0,-1.9695767164230347,-19.738723754882812,0.6491518616676331,-20.177515029907227,-9.128327369689941,1.6323134899139404,1.1511746644973755,0.21345758438110352,-0.09821443259716034
6341.0,-1.9695502519607544,-18.304702758789062,0.6471992135047913,-23.411115646362305,-12.174095153808594,-2.1147334575653076,0.889649510383606,-0.1346772313117981,-0.9200229048728943
6342.0,-1.9695302248001099,-16.9212646484375,0.6480832099914551,-23.964933395385742,-16.49260711669922,2.5952389240264893,0.8577608466148376,0.3314199149608612,-0.1391732096672058
6343.0,-1.9695223569869995,-15.586640357971191,0.6521220207214355,-28.31966781616211,-21.661191940307617,-3.319162130355835,0.31568291783332825,-0.39410191774368286,-1.7201422452926636
6344.0,-1.969536542892456,-14.299131393432617,0.65957111120224,-27.319395065307617,-25.170387268066406,4.4129252433776855,-0.3171696960926056,0.7213141918182373,0.6962034702301025
6345.0,-1.969580888748169,-13.057137489318848,0.670982837677002,-35.5732421875,-39.40719223022461,-6.964261054992676,-1.8691807985305786,-1.1578431129455566,-5.849947929382324
6346.0,-1.9697036743164062,-11.859221458435059,0.6876431107521057,-32.19377136230469,-53.902217864990234,9.929671287536621,-6.072021007537842,0.6347057223320007,1.026608943939209
6347.0,-1.9699286222457886,-10.70394229888916,0.711789071559906,-42.23929977416992,-78.54801177978516,-15.409554481506348,-10.02913761138916,-1.719915509223938,-12.508545875549316
6348.0,-1.9709663391113281,-9.592659950256348,0.7515778541564941,-78.16999053955078,-92.12957000732422,22.493980407714844,-6.148550033569336,2.0011203289031982,1.4225140810012817
6349.0,-1.973923921585083,-8.528164863586426,0.828607439994812,-111.67896270751953,-118.97911834716797,-42.361507415771484,-4.18632698059082,-3.8965299129486084,-33.2806396484375
6350.0,-1.98011314868927,-7.51275634765625,0.9811949133872986,-48.15188217163086,-136.16844177246094,-33.17147445678711,-25.09344482421875,7.036956787109375,8.518933296203613
6351.0,-1.9914867877960205,-6.545586585998535,1.210668683052063,93.09362030029297,5.4544901847839355,17.17943572998047,-19.492111206054688,17.023237228393555,38.96142578125
6352.0,-2.0058443546295166,-5.608661651611328,1.466882586479187,127.61863708496094,144.14353942871094,15.360457420349121,5.908325672149658,18.338144302368164,56.754371643066406
6529.0,-1.1621631383895874,-48.74945831298828,0.8317860960960388,10.944355010986328,33.754302978515625,0.758337140083313,0.10162781178951263,-0.04442118853330612,-0.6172651648521423
6530.0,-1.1621445417404175,-46.29248809814453,0.8261767625808716,8.090075492858887,29.54800033569336,-0.737704336643219,0.3837727904319763,-0.006359115708619356,-0.26022347807884216
6531.0,-1.1621209383010864,-43.922210693359375,0.8162089586257935,6.160210132598877,25.476137161254883,0.7313303351402283,0.3763943016529083,0.017542153596878052,-0.6919713616371155
6532.0,-1.1620992422103882,-41.63554763793945,0.8032065033912659,3.454519510269165,21.96379852294922,-0.5831995606422424,0.4514589011669159,-0.0012314309133216739,-0.19447948038578033
6533.0,-1.1620780229568481,-39.42953872680664,0.7882246375083923,1.5960054397583008,18.911420822143555,0.4669501483440399,0.4836267828941345,0.036183107644319534,-0.6832414865493774
6534.0,-1.1620603799819946,-37.301334381103516,0.7720705270767212,-0.896733283996582,16.120817184448242,-0.480103075504303,0.5267813801765442,-0.017883969470858574,-0.24477359652519226
6535.0,-1.1620407104492188,-35.2481689453125,0.7554202079772949,-2.585062265396118,13.729981422424316,0.13233941793441772,0.5989430546760559,-0.04821538180112839,-0.7054725289344788
6536.0,-1.1620224714279175,-33.267398834228516,0.7388004660606384,-4.6119465827941895,11.206832885742188,0.025758866220712662,0.5481556057929993,0.06343168020248413,-0.08000317215919495
6537.0,-1.1620053052902222,-31.356449127197266,0.7226650714874268,-6.621646404266357,8.941201210021973,-0.07591396570205688,0.6363510489463806,-0.05623013526201248,-0.5022134184837341
6538.0,-1.1619855165481567,-29.512876510620117,0.7073707580566406,-8.377760887145996,6.776665687561035,0.22854985296726227,0.6354393362998962,-0.013785883784294128,-0.19860783219337463
6539.0,-1.1619693040847778,-27.734281539916992,0.6932478547096252,-10.504581451416016,4.654867649078369,-0.30976226925849915,0.5683888792991638,0.01313101314008236,-0.5235683917999268
6540.0,-1.1619540452957153,-26.018383026123047,0.6805620789527893,-12.311745643615723,2.0295333862304688,0.4524175822734833,0.6834919452667236,0.028642890974879265,-0.14576543867588043
6541.0,-1.1619375944137573,-24.36296272277832,0.6695772409439087,-14.390419960021973,-0.10443764925003052,-0.5643253922462463,0.5881392955780029,-0.06639952212572098,-0.6248605847358704
6542.0,-1.1619197130203247,-22.76590347290039,0.6605207920074463,-16.173646926879883,-3.2108187675476074,0.6959347128868103,0.650640070438385,-0.0023678059224039316,-0.17842160165309906
6543.0,-1.161901593208313,-21.22514533996582,0.6536445617675781,-18.593284606933594,-5.467254638671875,-1.0162891149520874,0.658490002155304,0.019100628793239594,-0.7523770928382874
6544.0,-1.16188383102417,-19.738710403442383,0.6491616368293762,-20.28532600402832,-9.257034301757812,1.31095552444458,0.7781178951263428,0.16177348792552948,-0.0720529854297638
6545.0,-1.1618685722351074,-18.3046875,0.6473414301872253,-23.001237869262695,-12.018993377685547,-1.4350100755691528,0.5462631583213806,-0.044677041471004486,-0.8094668388366699
6546.0,-1.1618579626083374,-16.92125129699707,0.6483989357948303,-24.49470329284668,-16.896791458129883,1.7516138553619385,0.5307356715202332,0.09026198834180832,-0.10635512322187424
6547.0,-1.1618562936782837,-15.58663272857666,0.6526897549629211,-27.70956802368164,-21.51531982421875,-2.228987455368042,0.10782545804977417,-0.1978861391544342,-1.7204550504684448
6548.0,-1.1618717908859253,-14.299131393432617,0.6604671478271484,-27.124725341796875,-25.870622634887695,3.145813465118408,-0.35056906938552856,0.22902284562587738,0.7673607468605042
6549.0,-1.161909580230713,-13.057173728942871,0.6723781824111938,-33.84390640258789,-41.106082916259766,-5.311831951141357,-1.807727575302124,-0.3250594437122345,-6.469956398010254
6550.0,-1.1619949340820312,-11.859320640563965,0.6898364424705505,-30.64108657836914,-57.28404998779297,8.08322811126709,-4.515623092651367,-0.2030390352010727,2.117424726486206
6551.0,-1.1621426343917847,-10.704163551330566,0.7154152393341064,-38.95439529418945,-84.18426513671875,-13.773027420043945,-8.08736801147461,-0.38110706210136414,-14.203299522399902
6552.0,-1.163021206855774,-9.59406566619873,0.7596531510353088,-76.64167022705078,-98.51604461669922,21.2053279876709,-4.436086654663086,1.0368927717208862,2.8221144676208496
6553.0,-1.1651054620742798,-8.531513214111328,0.8485211133956909,-92.96197509765625,-117.13654327392578,-41.872074127197266,-6.446498394012451,-0.07352440804243088,-35.08935546875
6554.0,-1.1694847345352173,-7.519668102264404,1.0193558931350708,-11.252117156982422,-119.51545715332031,-4.189027786254883,-14.103608131408691,3.184429407119751,18.08586311340332
6555.0,-1.1766057014465332,-6.555893898010254,1.2635364532470703,120.24254608154297,48.89101791381836,21.664413452148438,-6.002170085906982,8.811379432678223,42.2210578918457
6556.0,-1.1839327812194824,-5.615962028503418,1.528028964996338,128.27386474609375,165.28468322753906,11.797501564025879,6.889206886291504,11.283004760742188,59.393829345703125
6733.0,-0.38273048400878906,-48.74945831298828,0.8317853212356567,11.034668922424316,33.84542465209961,0.8819437623023987,0.03716548904776573,0.02190636284649372,-0.6110953688621521
6734.0,-0.3827228248119354,-46.292484283447266,0.8261709809303284,8.058769226074219,29.582155227661133,-0.8641928434371948,0.21514545381069183,0.12014305591583252,-0.21976089477539062
6735.0,-0.3827114403247833,-43.92220687866211,0.8161934614181519,6.16226863861084,25.455167770385742,0.7477659583091736,0.15041972696781158,0.07767533510923386,-0.6405177712440491
6736.0,-0.38270214200019836,-41.63554382324219,0.8031787872314453,3.5049073696136475,22.070314407348633,-0.6043909192085266,0.2374277412891388,-0.015693299472332,-0.1787860095500946
6737.0,-0.38269543647766113,-39.42953872680664,0.7881836295127869,1.4800547361373901,18.87595558166504,0.5047429203987122,0.15869809687137604,-0.007136142812669277,-0.6292043328285217
6738.0,-0.382691353559494,-37.30133056640625,0.7720147371292114,-0.8713382482528687,16.203779220581055,-0.43716615438461304,0.19093284010887146,-0.0023333411663770676,-0.24638593196868896
6739.0,-0.38268357515335083,-35.248165130615234,0.7553499937057495,-2.365736246109009,13.88880729675293,0.4249255359172821,0.30791208148002625,0.06024465337395668,-0.6664091944694519
6740.0,-0.38267871737480164,-33.267391204833984,0.7387173175811768,-4.714183330535889,11.111205101013184,-0.19178324937820435,0.13634824752807617,0.03583744540810585,-0.11654414236545563
6741.0,-0.3826756179332733,-31.356447219848633,0.722570538520813,-6.539139747619629,9.03249454498291,0.10237734019756317,0.22595931589603424,-0.04261335730552673,-0.6484870314598083
6742.0,-0.38266921043395996,-29.512866973876953,0.7072689533233643,-8.539610862731934,6.665696144104004,0.036202579736709595,0.25894415378570557,0.051984306424856186,-0.17761777341365814
6743.0,-0.3826662302017212,-27.734270095825195,0.6931442022323608,-10.34399127960205,4.771793842315674,-0.10127557069063187,0.13528972864151,0.006734021939337254,-0.43236926198005676
6744.0,-0.3826640844345093,-26.018369674682617,0.6804608106613159,-12.266542434692383,2.0266902446746826,0.15590329468250275,0.22300663590431213,-0.14932535588741302,-0.1472572237253189
6745.0,-0.3826601207256317,-24.362957000732422,0.6694861054420471,-14.396614074707031,-0.2445986121892929,-0.407735139131546,0.19665493071079254,-0.12218882143497467,-0.6355929374694824
6746.0,-0.3826563358306885,-22.765897750854492,0.6604478359222412,-16.371030807495117,-3.1808245182037354,0.4793403446674347,0.1990956962108612,-0.002811620244756341,-0.23270393908023834
6747.0,-0.38265129923820496,-21.225135803222656,0.6536026000976562,-18.69280433654785,-5.461028575897217,-0.6165862679481506,0.2291509211063385,-0.0012653948506340384,-0.6065507531166077
6748.0,-0.3826456367969513,-19.73870277404785,0.6491629481315613,-20.414642333984375,-9.332520484924316,0.9881543517112732,0.14994506537914276,0.10063337534666061,-0.2883823812007904
6749.0,-0.3826415240764618,-18.3046817779541,0.6474066376686096,-23.106870651245117,-12.123167991638184,-1.1565572023391724,0.13917912542819977,0.03518228605389595,-0.6871370673179626
6750.0,-0.3826407194137573,-16.921247482299805,0.6485476493835449,-24.701356887817383,-16.991235733032227,1.3082219362258911,0.054343849420547485,-0.0026963872369378805,-0.3819608986377716
6751.0,-0.38264352083206177,-15.586630821228027,0.652961015701294,-27.67568588256836,-21.655181884765625,-1.8717939853668213,0.02808326855301857,-0.07479903101921082,-1.3666144609451294
6752.0,-0.38265401124954224,-14.299132347106934,0.6609006524085999,-27.092924118041992,-26.169185638427734,2.5035057067871094,-0.2823949158191681,0.28712424635887146,0.3692741096019745
6753.0,-0.3826742470264435,-13.057196617126465,0.6730617880821228,-32.751251220703125,-42.542423248291016,-4.5970072746276855,-0.6892921924591064,-0.0419650636613369,-6.17758846282959
6754.0,-0.3827093839645386,-11.859381675720215,0.6909173727035522,-29.279298782348633,-58.81966781616211,7.417557239532471,-1.8925732374191284,0.02808735892176628,1.8968631029129028
6755.0,-0.3827657401561737,-10.704305648803711,0.7172641158103943,-37.341068267822266,-88.98046875,-13.20754337310791,-3.2880330085754395,-0.579676628112793,-14.382802963256836
6756.0,-0.38311755657196045,-9.594870567321777,0.7641410827636719,-73.12410736083984,-102.19794464111328,20.985288619995117,-2.7407588958740234,1.1274226903915405,3.0436365604400635
6757.0,-0.3838968575000763,-8.533438682556152,0.8596857786178589,-81.81627655029297,-118.73479461669922,-43.404109954833984,-2.1944215297698975,-1.6238127946853638,-34.292659759521484
6758.0,-0.38551825284957886,-7.523375988006592,1.0395201444625854,5.287818908691406,-110.19829559326172,-3.689481735229492,-5.481305122375488,2.602424383163452,23.728984832763672
6759.0,-0.38791704177856445,-6.560993671417236,1.2898427248001099,127.92650604248047,69.2682113647461,21.36442756652832,-1.1500005722045898,4.44585657119751,44.785911560058594
6760.0,-0.3899089992046356,-5.618772506713867,1.5566153526306152,128.32359313964844,180.02159118652344,12.607831954956055,2.7270894050598145,3.307891845703125,60.969783782958984
6761.0,-0.39039915800094604,-4.675598621368408,1.787093997001648,144.9279022216797,232.22389221191406,7.129146099090576,6.236694812774658,4.031656742095947,47.24483871459961
30.0,-48.749473571777344,-3.675417184829712,0.8318089842796326,33.501522064208984,11.039780616760254,1.3271303176879883,0.7664880156517029,-0.7206769585609436,-0.036233723163604736
31.0,-48.74946594238281,-2.8074419498443604,0.8318034410476685,33.53451919555664,10.989150047302246,1.0533558130264282,0.6585825085639954,-0.6701664328575134,-0.0007107587880454957
32.0,-48.74946594238281,-1.970046043395996,0.8317995667457581,33.49978256225586,10.830222129821777,0.7490687966346741,0.5195321440696716,-0.6229241490364075,0.01686515100300312
33.0,-48.74946594238281,-1.1621514558792114,0.83179771900177,33.65428161621094,10.921079635620117,0.883972704410553,0.3917205035686493,-0.5731454491615295,0.044047173112630844
34.0,-48.74946594238281,-0.38271909952163696,0.831797182559967,33.754703521728516,11.007721900939941,0.9785424470901489,0.2509617507457733,-0.5817235112190247,-0.0422348715364933
35.0,-48.74946594238281,0.38273757696151733,0.8317971229553223,33.81008529663086,11.085320472717285,1.087917447090149,0.12488902360200882,-0.6181378960609436,-0.027784286066889763
36.0,-48.74946594238281,1.1621702909469604,0.8317980170249939,33.70291519165039,10.992043495178223,0.8988604545593262,0.03835151717066765,-0.6314644813537598,-0.04387723654508591
37.0,-48.74946594238281,1.9700652360916138,0.8318000435829163,33.6336669921875,10.937459945678711,0.8282775282859802,-0.09430622309446335,-0.6260368824005127,0.002042371081188321
38.0,-48.74946594238281,2.8074610233306885,0.8318041563034058,33.607391357421875,10.91781234741211,1.0349408388137817,-0.25224652886390686,-0.6357322335243225,-0.009453828446567059
39.0,-48.749473571777344,3.675435781478882,0.8318100571632385,33.556758880615234,10.970681190490723,1.2189339399337769,-0.38820603489875793,-0.6813066005706787,-0.01258181594312191
40.0,-48.749473571777344,4.575105667114258,0.8318180441856384,33.338191986083984,10.828110694885254,1.1458677053451538,-0.5428376793861389,-0.6642435193061829,-0.057900186628103256
234.0,-46.29251480102539,-3.675353527069092,0.8262876868247986,28.87472915649414,7.726634502410889,-1.1384273767471313,0.8949030637741089,-0.12268130481243134,-0.03887832537293434
235.0,-46.29250717163086,-2.807389974594116,0.8262602090835571,29.141019821166992,7.932793617248535,-0.9449133276939392,0.7237125039100647,-0.19319427013397217,-0.005617433227598667
236.0,-46.29250717163086,-1.9700051546096802,0.8262410759925842,29.265169143676758,8.003745079040527,-0.802599310874939,0.5071235299110413,-0.31387844681739807,-0.010330230928957462
237.0,-46.29249572753906,-1.162122368812561,0.8262304067611694,29.29388427734375,7.906226634979248,-0.7476233243942261,0.38088276982307434,-0.30174019932746887,-0.014972143806517124
238.0,-46.29248809814453,-0.38270074129104614,0.8262261152267456,29.327289581298828,8.038949012756348,-0.8993436098098755,0.16749879717826843,-0.2325333058834076,-0.050184451043605804
239.0,-46.29248809814453,0.38274553418159485,0.8262263536453247,29.377445220947266,8.014766693115234,-0.8535481095314026,0.037202730774879456,-0.2527907192707062,-0.030600277706980705
240.0,-46.29248809814453,1.1621674299240112,0.8262327909469604,29.380794525146484,8.051785469055176,-0.7809796929359436,-0.1852167546749115,-0.2659316062927246,-0.04541033133864403
241.0,-46.29248809814453,1.970050573348999,0.8262463808059692,29.199588775634766,7.832676887512207,-0.8488711714744568,-0.33405324816703796,-0.20676098763942719,-0.023304862901568413
242.0,-46.29250717163086,2.807433843612671,0.8262680768966675,29.142471313476562,7.8397603034973145,-0.9274946451187134,-0.5488879680633545,-0.14796072244644165,-0.0656619742512703
243.0,-46.292510986328125,3.67539644241333,0.8262978792190552,28.937776565551758,7.725356578826904,-1.171156406402588,-0.7301942110061646,-0.1512051820755005,-0.03521939739584923
244.0,-46.29251480102539,4.575053691864014,0.8263376951217651,28.76729965209961,7.614619731903076,-1.031614899635315,-0.9087123274803162,-0.14296062290668488,-0.0553986094892025
438.0,-43.922245025634766,-3.6752893924713135,0.8164801001548767,25.103179931640625,6.1623759269714355,1.051972508430481,1.1226717233657837,-0.6456775069236755,-0.02202715165913105
439.0,-43.922237396240234,-2.807340145111084,0.8164118528366089,25.201335906982422,6.165654182434082,0.8907837867736816,0.9363842010498047,-0.7019872069358826,-0.027766942977905273
440.0,-43.922218322753906,-1.9699680805206299,0.8163641691207886,25.240007400512695,6.074378490447998,0.6288360953330994,0.6192004084587097,-0.7049440741539001,-0.05137879401445389
441.0,-43.92221450805664,-1.1620975732803345,0.8163356184959412,25.288570404052734,6.009562969207764,0.6893558502197266,0.4191722869873047,-0.6784229278564453,-0.13665296137332916
442.0,-43.92221450805664,-0.3826877772808075,0.8163232207298279,25.445114135742188,6.311118125915527,0.8668861985206604,0.18767572939395905,-0.6754417419433594,-0.005910039413720369
443.0,-43.92221450805664,0.3827471435070038,0.8163248300552368,25.311416625976562,6.144186973571777,0.6912083029747009,0.024262575432658195,-0.7566566467285156,0.03270051255822182
444.0,-43.92221450805664,1.1621569395065308,0.8163419365882874,25.321338653564453,6.098925590515137,0.6876997947692871,-0.22698640823364258,-0.7289237976074219,0.055489297956228256
445.0,-43.922218322753906,1.9700267314910889,0.816376805305481,25.23267936706543,5.860447406768799,0.6342362761497498,-0.4228166937828064,-0.6827622056007385,-0.026904676109552383
446.0,-43.92222595214844,2.8073973655700684,0.8164306282997131,25.300304412841797,6.148761749267578,0.9312409162521362,-0.6646370887756348,-0.7471500039100647,-0.051655057817697525
447.0,-43.922237396240234,3.675346612930298,0.816504955291748,25.223731994628906,6.2369465827941895,1.0025177001953125,-0.921210765838623,-0.7632269263267517,-0.10393888503313065
448.0,-43.92224884033203,4.574991226196289,0.8166018128395081,25.04664421081543,6.122678756713867,0.9342116713523865,-1.1726336479187012,-0.7316718697547913,-0.06962472945451736
642.0,-41.63559341430664,-3.6752283573150635,0.8036789298057556,21.635684967041016,3.3308067321777344,-0.8777600526809692,1.1678199768066406,-0.17528343200683594,-0.01706130988895893
643.0,-41.63558578491211,-2.8072915077209473,0.8035579323768616,21.755874633789062,3.3799023628234863,-0.706972062587738,0.9551619291305542,-0.248594731092453,-0.014913691207766533
644.0,-41.63557052612305,-1.9699336290359497,0.8034734129905701,21.841798782348633,3.412982702255249,-0.559610903263092,0.6487565636634827,-0.20984625816345215,0.009375871159136295
645.0,-41.635562896728516,-1.1620761156082153,0.803421139717102,21.920347213745117,3.4206032752990723,-0.5218710899353027,0.3679390549659729,-0.17561043798923492,-0.042041510343551636
646.0,-41.635555267333984,-0.382679283618927,0.803398072719574,22.034238815307617,3.532928705215454,-0.5203093886375427,0.15595461428165436,-0.20356129109859467,-0.06015703082084656
647.0,-41.635555267333984,0.38274329900741577,0.8034018278121948,22.02912139892578,3.594228506088257,-0.6352829337120056,-0.1463436335325241,-0.2598083019256592,-0.04661538451910019
648.0,-41.63555908203125,1.1621404886245728,0.8034330010414124,21.952362060546875,3.432044506072998,-0.45487239956855774,-0.338270902633667,-0.21723173558712006,0.01713434047996998
649.0,-41.635562896728516,1.9699976444244385,0.8034945130348206,21.85249137878418,3.41316819190979,-0.5042324662208557,-0.6241140365600586,-0.17091768980026245,-0.07286255806684494
650.0,-41.63557052612305,2.8073556423187256,0.8035889863967896,21.628999710083008,3.2288050651550293,-0.8494225144386292,-0.8800381422042847,-0.2458444982767105,-0.01775389164686203
651.0,-41.635589599609375,3.6752912998199463,0.8037205338478088,21.552383422851562,3.287109375,-0.9038623571395874,-1.1390904188156128,-0.23166777193546295,-0.04211726412177086
652.0,-41.63560485839844,4.57492208480835,0.8038913011550903,21.40764045715332,3.2311744689941406,-0.8290333151817322,-1.4674711227416992,-0.15406052768230438,-0.08184834569692612
846.0,-39.429595947265625,-3.675171136856079,0.7889146208763123,18.844139099121094,1.893941044807434,0.7554460167884827,1.2846931219100952,-0.6651086807250977,0.015297540463507175
847.0,-39.4295768737793,-2.807249069213867,0.7887349724769592,18.881330490112305,1.7030848264694214,0.6324147582054138,1.017933964729309,-0.61105877161026,-0.001466216635890305
848.0,-39.4295654296875,-1.9699041843414307,0.7886094450950623,18.92058563232422,1.712279200553894,0.4348868727684021,0.6873220801353455,-0.6222938895225525,-0.005160752218216658
849.0,-39.429561614990234,-1.1620596647262573,0.7885317802429199,18.875112533569336,1.6159332990646362,0.36959654092788696,0.3670143485069275,-0.6863733530044556,-0.005749275907874107
850.0,-39.4295539855957,-0.3826749920845032,0.7884976863861084,18.915067672729492,1.7525025606155396,0.5073938369750977,0.1714496612548828,-0.638705313205719,-0.0437798798084259
851.0,-39.4295539855957,0.38273483514785767,0.7885035872459412,18.898862838745117,1.7150954008102417,0.41549962759017944,-0.12622152268886566,-0.5598763823509216,-0.006476052571088076
852.0,-39.4295539855957,1.162118911743164,0.7885499596595764,18.89201545715332,1.5809245109558105,0.4696958363056183,-0.4562376141548157,-0.5734550952911377,0.0642089769244194
853.0,-39.429561614990234,1.9699633121490479,0.788640558719635,18.87939453125,1.669503927230835,0.43259042501449585,-0.679011881351471,-0.5862159132957458,0.04878421127796173
854.0,-39.429569244384766,2.8073079586029053,0.7887807488441467,18.92006492614746,1.7610433101654053,0.6326219439506531,-1.034186840057373,-0.6306939721107483,0.007135144900530577
855.0,-39.42958450317383,3.6752302646636963,0.788975179195404,19.000673294067383,1.9862269163131714,0.9833813905715942,-1.3044289350509644,-0.706427812576294,0.020882487297058105
856.0,-39.42959976196289,4.574846267700195,0.7892286777496338,18.681577682495117,1.6295948028564453,0.5918228030204773,-1.6436045169830322,-0.6975845694541931,-0.06944897770881653
1049.0,-37.301422119140625,-4.574716567993164,0.7733035087585449,15.85771369934082,-0.5747671723365784,-0.5677208304405212,1.8070591688156128,-0.17815373837947845,0.023970380425453186
1050.0,-37.301395416259766,-3.6751139163970947,0.7729824781417847,15.906744956970215,-0.7188547849655151,-0.7687194347381592,1.455741047859192,-0.22665129601955414,-0.05470099300146103
1051.0,-37.30137634277344,-2.807206153869629,0.77274090051651,15.999817848205566,-0.7356423735618591,-0.5463053584098816,1.0992459058761597,-0.10724199563264847,0.013460353016853333
1052.0,-37.30136489868164,-1.9698752164840698,0.7725719213485718,16.169218063354492,-0.5510507225990295,-0.19352516531944275,0.7965731024742126,-0.19760477542877197,0.03474804386496544
1053.0,-37.30135726928711,-1.1620434522628784,0.7724675536155701,16.17195701599121,-0.5764113068580627,-0.3886198401451111,0.41715142130851746,-0.3122239410877228,-0.04009955748915672
1054.0,-37.30134963989258,-0.3826715350151062,0.7724213600158691,16.246564865112305,-0.616884708404541,-0.31125926971435547,0.13788682222366333,-0.2134537547826767,-0.02180974930524826
1055.0,-37.30134582519531,0.3827245831489563,0.7724289298057556,16.19267463684082,-0.6944898962974548,-0.34953901171684265,-0.1466055065393448,-0.15189622342586517,0.021335888653993607
1056.0,-37.30134963989258,1.1620959043502808,0.7724904417991638,16.226266860961914,-0.5447752475738525,-0.26012900471687317,-0.5401742458343506,-0.18946276605129242,0.08068405836820602
1057.0,-37.30135726928711,1.9699270725250244,0.7726115584373474,16.04726219177246,-0.7552337050437927,-0.35979604721069336,-0.7657802104949951,-0.257980078458786,0.03317892551422119
1058.0,-37.30136489868164,2.807257652282715,0.7727988958358765,15.994819641113281,-0.688555121421814,-0.5403454899787903,-1.0932860374450684,-0.2803623676300049,-0.04725001007318497
1059.0,-37.301387786865234,3.6751654148101807,0.7730580568313599,15.920525550842285,-0.7575688362121582,-0.7396305799484253,-1.4517251253128052,-0.2410675585269928,0.005213369149714708
1060.0,-37.30140686035156,4.574767589569092,0.7733969688415527,15.83139705657959,-0.733247697353363,-0.7187553644180298,-1.8080358505249023,-0.22057726979255676,0.008487486280500889
1254.0,-35.248233795166016,-3.675056219100952,0.7565370202064514,13.745673179626465,-2.1314685344696045,0.7512409687042236,1.5757819414138794,-0.5500986576080322,-0.0966164618730545
1255.0,-35.24821472167969,-2.807162284851074,0.7562359571456909,13.786140441894531,-2.1559746265411377,0.4533082842826843,1.17489492893219,-0.4853263199329376,-0.048584576696157455
1256.0,-35.248199462890625,-1.969844937324524,0.756024956703186,13.663237571716309,-2.5089352130889893,0.07315883040428162,0.8548024892807007,-0.6237906813621521,-0.004144120495766401
1257.0,-35.24818801879883,-1.1620274782180786,0.755894660949707,13.686708450317383,-2.459352731704712,0.12454141676425934,0.41574761271476746,-0.7745394110679626,-0.05745962634682655
1258.0,-35.24818420410156,-0.38267016410827637,0.7558369040489197,13.731301307678223,-2.571284532546997,0.3721781075000763,0.14267946779727936,-0.6849238872528076,-0.04657585918903351
1259.0,-35.2481803894043,0.3827119469642639,0.7558456063270569,13.750639915466309,-2.449599027633667,0.32991325855255127,-0.23688504099845886,-0.5886642336845398,-0.06472539156675339
1260.0,-35.24818801879883,1.1620702743530273,0.7559217810630798,13.809035301208496,-2.298866033554077,0.26716506481170654,-0.5477837920188904,-0.5883862972259521,-0.014150968752801418
1261.0,-35.24819564819336,1.96988844871521,0.7560721039772034,13.755561828613281,-2.475985288619995,0.10602051019668579,-0.9017764329910278,-0.6286447644233704,-0.030001025646924973
1262.0,-35.24820327758789,2.8072052001953125,0.7563037872314453,13.834405899047852,-2.221616744995117,0.4541580379009247,-1.2180147171020508,-0.6286084055900574,-0.013089611195027828
1263.0,-35.248226165771484,3.675098419189453,0.7566250562667847,13.744400978088379,-2.204897880554199,0.7613154053688049,-1.6242406368255615,-0.5979096293449402,-0.0033540313597768545
1264.0,-35.24824905395508,4.574685573577881,0.7570467591285706,13.62959098815918,-2.0461127758026123,0.4812125563621521,-1.9473763704299927,-0.6189655661582947,0.0017119653057307005
1457.0,-33.26749038696289,-4.574567794799805,0.7405622005462646,10.945192337036133,-4.579288482666016,-0.456550657749176,2.078054189682007,-0.25555577874183655,-0.10538595914840698
1458.0,-33.267459869384766,-3.674997091293335,0.7400913834571838,11.044854164123535,-4.641092777252197,-0.6037687659263611,1.714057207107544,-0.23059417307376862,-0.10291718691587448
1459.0,-33.26744079589844,-2.807117462158203,0.7397369742393494,11.18267822265625,-4.46565055847168,-0.3254241645336151,1.2821722030639648,-0.19844160974025726,-0.011872575618326664
1460.0,-33.267425537109375,-1.969814419746399,0.7394880652427673,11.282584190368652,-4.442810535430908,0.07091148942708969,0.9018560647964478,-0.13418477773666382,0.055810295045375824
1461.0,-33.26741409301758,-1.1620111465454102,0.7393344640731812,11.305488586425781,-4.580673694610596,-0.03842945024371147,0.5388640761375427,-0.10944782942533493,-0.013528549112379551
1462.0,-33.26740646362305,-0.38266751170158386,0.739266037940979,11.208581924438477,-4.749716281890869,-0.2688685357570648,0.1736084222793579,-0.18500961363315582,-0.034855637699365616
1463.0,-33.26740646362305,0.38270190358161926,0.7392759919166565,11.20888900756836,-4.659011363983154,-0.2855972945690155,-0.14705298840999603,-0.11401425302028656,-0.05342518538236618
1464.0,-33.26741027832031,1.1620463132858276,0.7393654584884644,11.213642120361328,-4.588832378387451,-0.09504328668117523,-0.5326918959617615,-0.05742896348237991,-0.021310128271579742
1465.0,-33.26742172241211,1.9698506593704224,0.7395418882369995,11.204280853271484,-4.369210720062256,-0.001668361248448491,-0.827052116394043,-0.1349729746580124,-0.00983625277876854
1466.0,-33.26742935180664,2.8071539402008057,0.7398135662078857,11.041059494018555,-4.620899677276611,-0.40373727679252625,-1.2368005514144897,-0.10246778279542923,0.030808981508016586
1467.0,-33.2674560546875,3.6750330924987793,0.7401914000511169,11.020286560058594,-4.648281574249268,-0.5569191575050354,-1.6378576755523682,-0.10749251395463943,-0.017543628811836243
1468.0,-33.26748275756836,4.574605464935303,0.740687906742096,10.99370002746582,-4.371814727783203,-0.5096455216407776,-2.0000855922698975,-0.18485654890537262,0.08586639910936356
1661.0,-31.35655403137207,-4.574491024017334,0.7246155738830566,8.990693092346191,-5.993690013885498,0.4034920036792755,2.2228190898895264,-0.40804004669189453,-0.10026262700557709
1662.0,-31.356523513793945,-3.674934148788452,0.7240864038467407,9.042206764221191,-6.069534778594971,0.6255300641059875,1.8181525468826294,-0.4262678921222687,-0.061427291482686996
1663.0,-31.356494903564453,-2.807069778442383,0.723689079284668,9.003253936767578,-6.202228546142578,0.1988144963979721,1.419062614440918,-0.5183249115943909,-0.1058640405535698
1664.0,-31.35647964477539,-1.9697816371917725,0.7234101295471191,8.99084186553955,-6.4323015213012695,-0.08389213681221008,1.009099006652832,-0.5050572752952576,-0.04804205149412155
1665.0,-31.35647201538086,-1.1619914770126343,0.7232380509376526,8.969595909118652,-6.4856414794921875,0.03122665174305439,0.616195023059845,-0.4821040630340576,-0.04896038398146629
1666.0,-31.356462478637695,-0.3826606571674347,0.7231611609458923,8.915580749511719,-6.494259834289551,0.08290111273527145,0.16438327729701996,-0.6069067120552063,-0.0807475745677948
1667.0,-31.356462478637695,0.382696270942688,0.7231724262237549,8.97106647491455,-6.395775318145752,0.1430564671754837,-0.08976444602012634,-0.5884820818901062,-0.06776108592748642
1668.0,-31.356464385986328,1.1620272397994995,0.7232726812362671,8.946022987365723,-6.532192230224609,-0.027857007458806038,-0.5239901542663574,-0.5691424012184143,0.012069443240761757
1669.0,-31.356477737426758,1.9698172807693481,0.7234681844711304,9.021714210510254,-6.326871871948242,-0.02755231037735939,-0.8652333617210388,-0.5966842174530029,-0.007598272990435362
1670.0,-31.35649299621582,2.8071062564849854,0.7237706780433655,8.896035194396973,-6.304458141326904,0.22436344623565674,-1.3339638710021973,-0.5039317011833191,0.019962185993790627
1671.0,-31.356510162353516,3.674970865249634,0.7241939902305603,9.027304649353027,-5.921500205993652,0.7510008215904236,-1.6816757917404175,-0.48645541071891785,-0.03810122609138489
1672.0,-31.356538772583008,4.574528217315674,0.7247510552406311,8.872992515563965,-5.9966535568237305,0.3735146224498749,-2.118044853210449,-0.508326530456543,0.044273145496845245
1866.0,-29.512943267822266,-3.6748714447021484,0.7088786363601685,6.5171732902526855,-8.433981895446777,-0.5537758469581604,1.9285248517990112,-0.334642618894577,-0.09806448966264725
1867.0,-29.512922286987305,-2.8070218563079834,0.7084507942199707,6.696849346160889,-8.250357627868652,-0.13898669183254242,1.4014979600906372,-0.27945205569267273,-0.05526906996965408
1868.0,-29.512907028198242,-1.9697474241256714,0.7081504464149475,6.689388751983643,-8.230813026428223,0.36413317918777466,0.9651197791099548,-0.20463834702968597,0.015178150497376919
1869.0,-29.51289176940918,-1.1619716882705688,0.7079644203186035,6.571994781494141,-8.455525398254395,0.1989467293024063,0.5704069137573242,-0.20373490452766418,0.018398622050881386
1870.0,-29.512882232666016,-0.38265460729599,0.707881510257721,6.582030773162842,-8.503373146057129,-0.10913193970918655,0.1739509105682373,-0.215407595038414,-0.04998907819390297
1871.0,-29.512882232666016,0.38268905878067017,0.7078939080238342,6.718739032745361,-8.364659309387207,0.11020506918430328,-0.21705196797847748,-0.1705370992422104,-0.05077943950891495
1872.0,-29.51289176940918,1.1620064973831177,0.708000659942627,6.650162220001221,-8.402324676513672,0.18490338325500488,-0.5943775773048401,-0.20233559608459473,-0.08694255352020264
1873.0,-29.51290512084961,1.9697827100753784,0.708209753036499,6.683220863342285,-8.25369930267334,0.23838356137275696,-1.0273836851119995,-0.22047744691371918,-0.09523521363735199
1874.0,-29.51291275024414,2.8070566654205322,0.708534300327301,6.581592082977295,-8.407988548278809,-0.2863719165325165,-1.4313126802444458,-0.2631586790084839,-0.028806451708078384
1875.0,-29.512939453125,3.674906015396118,0.708989679813385,6.567112922668457,-8.364295959472656,-0.6452712416648865,-1.8318625688552856,-0.3614404797554016,0.04398060217499733
1876.0,-29.512968063354492,4.574449062347412,0.7095900774002075,6.593883991241455,-8.154548645019531,-0.3205966651439667,-2.312669515609741,-0.2833482027053833,0.01679016649723053
2069.0,-27.734392166137695,-4.574333667755127,0.6953718662261963,4.516870498657227,-9.86309814453125,0.27447012066841125,2.4279327392578125,-0.43024685978889465,0.03403598442673683
2070.0,-27.734357833862305,-3.674807071685791,0.6947827935218811,4.654640197753906,-9.77377700805664,0.6374297738075256,2.0721051692962646,-0.3886338472366333,-0.024220837280154228
2071.0,-27.734329223632812,-2.8069722652435303,0.6943433284759521,4.490722179412842,-10.17638874053955,0.04576878994703293,1.5398482084274292,-0.3723265826702118,-0.031538840383291245
2072.0,-27.734312057495117,-1.9697132110595703,0.6940351724624634,4.578388690948486,-10.385666847229004,-0.4095011055469513,1.0765246152877808,-0.5147756934165955,-0.05279892683029175
2073.0,-27.734298706054688,-1.1619514226913452,0.6938444375991821,4.628651142120361,-10.446513175964355,-0.3399118185043335,0.643821656703949,-0.5612534880638123,0.09209132939577103
2074.0,-27.734296798706055,-0.3826475441455841,0.6937606334686279,4.602301120758057,-10.35471248626709,-0.21316838264465332,0.29097822308540344,-0.5112060904502869,0.05041169375181198
2075.0,-27.734294891357422,0.3826824426651001,0.6937731504440308,4.65794563293457,-10.391324043273926,-0.01683640480041504,-0.1303231120109558,-0.4683900475502014,0.0811164379119873
2076.0,-27.734296798706055,1.1619855165481567,0.6938806176185608,4.600759029388428,-10.467182159423828,-0.3072545826435089,-0.5106077790260315,-0.45357656478881836,0.02238170988857746
2077.0,-27.734310150146484,1.969747543334961,0.6940937638282776,4.637421131134033,-10.273303031921387,-0.35755300521850586,-0.9796352982521057,-0.39800336956977844,0.0836840271949768
2078.0,-27.734317779541016,2.8070077896118164,0.694426417350769,4.696319103240967,-10.00427532196045,0.2773573100566864,-1.4341915845870972,-0.3562287986278534,0.06880471855401993
2079.0,-27.734346389770508,3.6748430728912354,0.694893479347229,4.564102649688721,-9.816977500915527,0.5435139536857605,-1.8366899490356445,-0.42958375811576843,0.08553183078765869
2080.0,-27.734378814697266,4.574370861053467,0.695512056350708,4.495439052581787,-9.783953666687012,0.30950114130973816,-2.2701222896575928,-0.4054463505744934,0.02476479299366474
2273.0,-26.018495559692383,-4.574253559112549,0.6826391816139221,2.2885029315948486,-11.80576229095459,-0.1467994600534439,2.5884180068969727,-0.3209669291973114,-0.09754292666912079
2274.0,-26.018461227416992,-3.6747419834136963,0.6820607781410217,2.1463611125946045,-12.204254150390625,-0.5492339134216309,2.0249760150909424,-0.35964077711105347,-0.06787829846143723
2275.0,-26.0184326171875,-2.806922674179077,0.6816302537918091,2.1046082973480225,-12.214262962341309,-0.00912605319172144,1.543028712272644,-0.3569900691509247,-0.04487811028957367
2276.0,-26.018413543701172,-1.9696776866912842,0.6813297271728516,2.178773880004883,-11.996667861938477,0.6353960037231445,1.1369150876998901,-0.19173726439476013,-0.032384272664785385
2277.0,-26.018400192260742,-1.161929965019226,0.681145429611206,2.1241614818573,-12.190706253051758,0.5190012454986572,0.6489254832267761,-0.11049230396747589,0.10228919237852097
2278.0,-26.018390655517578,-0.3826393783092499,0.6810640692710876,2.170149803161621,-12.179139137268066,0.2812032997608185,0.2362220138311386,-0.16492833197116852,0.04076403006911278
2279.0,-26.018390655517578,0.38267719745635986,0.6810746788978577,2.0743513107299805,-12.407364845275879,0.1905445158481598,-0.17720554769039154,-0.17646676301956177,0.036506082862615585
2280.0,-26.01839828491211,1.161966323852539,0.6811784505844116,2.052385091781616,-12.305156707763672,0.39179131388664246,-0.6253790855407715,-0.08622395992279053,-0.01593254692852497
2281.0,-26.018404006958008,1.9697142839431763,0.6813852787017822,2.0984280109405518,-12.006712913513184,0.5408677458763123,-1.0718311071395874,-0.09260677546262741,-0.0199008509516716
2282.0,-26.018428802490234,2.806960105895996,0.6817087531089783,2.1486623287200928,-12.109197616577148,-0.0027410313487052917,-1.4518805742263794,-0.21386729180812836,-0.0026996484957635403
2283.0,-26.018449783325195,3.6747801303863525,0.6821650862693787,2.1260745525360107,-12.182089805603027,-0.6730787754058838,-2.018069267272949,-0.2815243899822235,0.07794960588216782
2284.0,-26.018489837646484,4.574293613433838,0.6827716827392578,2.208181619644165,-11.795701026916504,-0.15373899042606354,-2.4288814067840576,-0.2574232816696167,0.03303205594420433
2477.0,-24.36308479309082,-4.574173450469971,0.6714797616004944,-0.3528894782066345,-13.764335632324219,0.08222313970327377,2.640795946121216,-0.372452974319458,0.004828870762139559
2478.0,-24.363048553466797,-3.6746773719787598,0.6709498167037964,-0.291177898645401,-13.880043983459473,0.4820868968963623,2.094865560531616,-0.3149893283843994,-0.02660958655178547
2479.0,-24.363019943237305,-2.806873083114624,0.6705607175827026,-0.12768830358982086,-14.134003639221191,0.03673216328024864,1.667922019958496,-0.42741066217422485,-0.14204061031341553
2480.0,-24.362993240356445,-1.9696428775787354,0.670291543006897,-0.15139125287532806,-14.51021671295166,-0.7709206938743591,1.1676102876663208,-0.5425509810447693,-0.19134332239627838
2481.0,-24.362979888916016,-1.1619091033935547,0.670128345489502,-0.06733126193284988,-14.374787330627441,-0.5685646533966064,0.6327934861183167,-0.635657548904419,0.0054193343967199326
2482.0,-24.36297607421875,-0.38263237476348877,0.6700568795204163,-0.2568499743938446,-14.571290016174316,-0.48754116892814636,0.2546771466732025,-0.5586653351783752,0.046546611934900284
2483.0,-24.36297607421875,0.38267043232917786,0.670067310333252,-0.280848890542984,-14.489953994750977,-0.3033098876476288,-0.2452506124973297,-0.5379132628440857,0.008731036446988583
2484.0,-24.362979888916016,1.1619466543197632,0.6701598167419434,-0.32193824648857117,-14.566191673278809,-0.5596754550933838,-0.5742101669311523,-0.5466741919517517,-0.003462486434727907
2485.0,-24.362993240356445,1.9696799516677856,0.6703441143035889,-0.358500212430954,-14.58262825012207,-0.8099461197853088,-1.1360911130905151,-0.4457477927207947,0.08989192545413971
2486.0,-24.363014221191406,2.8069100379943848,0.6706337928771973,-0.3633726239204407,-14.177597999572754,0.009458955377340317,-1.5268683433532715,-0.3932921588420868,0.051454655826091766
2487.0,-24.363039016723633,3.674715280532837,0.671046793460846,-0.36658066511154175,-13.800569534301758,0.5365087985992432,-2.082573890686035,-0.34343817830085754,0.0004343089822214097
2488.0,-24.363079071044922,4.574213027954102,0.6716036200523376,-0.28728917241096497,-13.638930320739746,0.24578633904457092,-2.551532030105591,-0.38971713185310364,-0.057332754135131836
2682.0,-22.765989303588867,-3.6746115684509277,0.6616773009300232,-2.750551223754883,-16.168230056762695,-0.5504302382469177,2.224517583847046,-0.3477838337421417,-0.09954803436994553
2683.0,-22.765958786010742,-2.806821823120117,0.6613638401031494,-2.9375975131988525,-16.223203659057617,0.09673242270946503,1.6626722812652588,-0.3014817535877228,-0.0030655101872980595
2684.0,-22.76593780517578,-1.9696062803268433,0.6611519455909729,-3.092181921005249,-16.09995460510254,0.9884968400001526,1.2450361251831055,-0.1584005355834961,-0.010364488698542118
2685.0,-22.76592254638672,-1.1618860960006714,0.661024808883667,-3.079131841659546,-16.083559036254883,0.8181077241897583,0.7797880172729492,-0.10191784799098969,0.03574104234576225
2686.0,-22.765914916992188,-0.38262268900871277,0.6609706282615662,-3.169224739074707,-16.438825607299805,0.3519737422466278,0.28976520895957947,-0.16424231231212616,0.12197482585906982
2687.0,-22.76591682434082,0.38266655802726746,0.6609806418418884,-3.015922784805298,-16.350629806518555,0.6129065155982971,-0.18477226793766022,-0.17291709780693054,-0.007653407286852598
2688.0,-22.765926361083984,1.1619292497634888,0.6610535979270935,-2.969536066055298,-16.109228134155273,0.8276385068893433,-0.5359387993812561,-0.12707723677158356,-0.09096085280179977
2689.0,-22.76593780517578,1.969649076461792,0.6611989140510559,-2.9160101413726807,-16.043344497680664,1.006168246269226,-1.0379668474197388,-0.1716974675655365,-0.05567092075943947
2690.0,-22.76595687866211,2.806864023208618,0.6614299416542053,-2.8304390907287598,-16.189058303833008,0.1754610687494278,-1.4250038862228394,-0.3478054702281952,-0.050999972969293594
2691.0,-22.76598358154297,3.6746537685394287,0.6617641448974609,-2.87863826751709,-16.303991317749023,-0.7869247794151306,-1.9449108839035034,-0.339537113904953,0.13672535121440887
2692.0,-22.766021728515625,4.574134349822998,0.6622233986854553,-2.7261500358581543,-15.853232383728027,-0.03474358096718788,-2.5683348178863525,-0.31510642170906067,0.10639040172100067
2885.0,-21.22527313232422,-4.574009418487549,0.6547343730926514,-5.867424011230469,-18.079591751098633,-0.04875525087118149,2.781714916229248,-0.5265035033226013,0.054806653410196304
2886.0,-21.22523307800293,-3.6745452880859375,0.6544529795646667,-5.78550386428833,-18.05190086364746,0.7873292565345764,2.1966092586517334,-0.4551251232624054,0.02466985397040844
2887.0,-21.225202560424805,-2.8067703247070312,0.6542666554450989,-5.681312084197998,-18.217880249023438,-0.14021623134613037,1.7330886125564575,-0.4790666699409485,-0.09952277690172195
2888.0,-21.225175857543945,-1.9695680141448975,0.6541505455970764,-5.702270030975342,-18.90001106262207,-1.3810226917266846,1.221076488494873,-0.7592516541481018,-0.0633726716041565
2889.0,-21.225160598754883,-1.161861538887024,0.6540858745574951,-5.516557693481445,-18.663610458374023,-0.9360464811325073,0.7728627920150757,-0.7975167632102966,-0.07761196047067642
2890.0,-21.225156784057617,-0.38261157274246216,0.6540603041648865,-5.565124988555908,-18.788230895996094,-0.8019805550575256,0.3541436493396759,-0.6543454527854919,-0.033905353397130966
2891.0,-21.225156784057617,0.38266468048095703,0.6540679335594177,-5.48454475402832,-18.755523681640625,-0.6792765259742737,-0.23444387316703796,-0.6005942821502686,0.022221315652132034
2892.0,-21.225160598754883,1.1619144678115845,0.6541076302528381,-5.514869213104248,-18.702970504760742,-1.0436161756515503,-0.5025586485862732,-0.6511741280555725,0.04081326723098755
2893.0,-21.225173950195312,1.9696205854415894,0.6541877388954163,-5.750126361846924,-18.95867156982422,-1.4629814624786377,-1.0797227621078491,-0.6791996955871582,0.1561664491891861
2894.0,-21.225196838378906,2.806821823120117,0.654320478439331,-5.7168354988098145,-18.4262638092041,-0.15199612081050873,-1.5511517524719238,-0.4552927315235138,0.041039034724235535
2895.0,-21.2252254486084,3.674595355987549,0.6545239090919495,-5.699672222137451,-18.07438850402832,0.7915034294128418,-1.990041971206665,-0.3056986629962921,-0.021985752508044243
2896.0,-21.225263595581055,4.574059009552002,0.654824435710907,-5.6284260749816895,-18.02080535888672,0.07741420716047287,-2.6051595211029053,-0.4080231189727783,-0.10092013329267502
3090.0,-19.738798141479492,-3.67448091506958,0.6494879722595215,-8.922257423400879,-20.881406784057617,-0.9185553789138794,2.152202844619751,-0.5667456984519958,-0.12622703611850739
3091.0,-19.738767623901367,-2.806720733642578,0.6494840979576111,-8.847138404846191,-20.22173500061035,0.368378609418869,1.6946794986724854,-0.3753522038459778,-0.000932522932998836
3092.0,-19.738740921020508,-1.9695318937301636,0.6495028138160706,-9.136834144592285,-20.0715274810791,1.5911701917648315,1.1592031717300415,-0.19409510493278503,0.15415793657302856
3093.0,-19.73872947692871,-1.1618386507034302,0.6495253443717957,-9.3456392288208,-20.378610610961914,1.421901822090149,0.7658762335777283,-0.2542882263660431,-0.0020139405969530344
3094.0,-19.73872184753418,-0.38260170817375183,0.6495417952537537,-9.622916221618652,-20.654264450073242,0.9185947179794312,0.29243946075439453,-0.27302345633506775,0.0222015343606472
3095.0,-19.73872184753418,0.382663369178772,0.6495475769042969,-9.528404235839844,-20.47886848449707,0.9547916650772095,-0.10738819092512131,-0.24161526560783386,-0.0780407264828682
3096.0,-19.738725662231445,1.1619006395339966,0.6495416760444641,-9.464316368103027,-20.518983840942383,1.2611099481582642,-0.5564624667167664,-0.10352873057126999,-0.016500895842909813
3097.0,-19.738740921020508,1.969592809677124,0.6495306491851807,-9.180121421813965,-20.203256607055664,1.684971570968628,-1.0175200700759888,-0.260029673576355,-0.14901886880397797
3098.0,-19.73876190185547,2.806779623031616,0.6495230793952942,-8.962188720703125,-20.548986434936523,0.2592744529247284,-1.4566181898117065,-0.4468904137611389,-0.04971221834421158
3099.0,-19.738786697387695,3.6745378971099854,0.6495388150215149,-9.03829288482666,-21.068946838378906,-1.1387438774108887,-1.9388352632522583,-0.38186585903167725,0.15061801671981812
3100.0,-19.738828659057617,4.573985576629639,0.649607241153717,-8.545622825622559,-20.19322967529297,0.13828735053539276,-2.52846360206604,-0.33789151906967163,0.2004971206188202
3294.0,-18.304777145385742,-3.674421548843384,0.6469865441322327,-12.419768333435059,-22.484844207763672,1.101927638053894,2.052562952041626,-0.5810312628746033,0.05868398770689964
3295.0,-18.30474853515625,-2.8066751956939697,0.6472506523132324,-12.465494155883789,-22.734943389892578,-0.25301751494407654,1.6385031938552856,-0.6381049752235413,-0.13700778782367706
3296.0,-18.304725646972656,-1.9694994688034058,0.6474711298942566,-12.662391662597656,-23.583744049072266,-2.1812078952789307,1.0701590776443481,-0.8798685669898987,-0.24319742619991302
3297.0,-18.304712295532227,-1.1618176698684692,0.6476258635520935,-12.360836029052734,-23.218769073486328,-1.5638930797576904,0.6733248233795166,-0.887071967124939,-0.15887971222400665
3298.0,-18.304704666137695,-0.382591187953949,0.647705614566803,-12.282500267028809,-23.199201583862305,-1.2397894859313965,0.3513281047344208,-0.6433164477348328,-0.04601970687508583
3299.0,-18.304704666137695,0.3826634883880615,0.6477091312408447,-12.158278465270996,-22.97227668762207,-1.1597853899002075,-0.0710754469037056,-0.6385924816131592,-0.034024301916360855
3300.0,-18.304710388183594,1.1618901491165161,0.647636353969574,-12.155083656311035,-23.193748474121094,-1.3709906339645386,-0.38693860173225403,-0.8587542176246643,0.028519120067358017
3301.0,-18.304719924926758,1.969570279121399,0.647489070892334,-12.46377944946289,-23.660537719726562,-2.0449371337890625,-0.8313136696815491,-0.9360789656639099,0.12824225425720215
3302.0,-18.30474281311035,2.8067433834075928,0.647275984287262,-12.44575309753418,-23.009418487548828,-0.30505087971687317,-1.3023804426193237,-0.6607066988945007,0.14429865777492523
3303.0,-18.30476951599121,3.674487590789795,0.6470193266868591,-12.29079818725586,-22.530139923095703,1.0376499891281128,-1.7286088466644287,-0.5755400061607361,-0.07880476862192154
3304.0,-18.3048038482666,4.573919296264648,0.646755039691925,-12.347243309020996,-22.92353630065918,-0.28607845306396484,-2.275369882583618,-0.6932287812232971,-0.1338442713022232
3498.0,-16.921335220336914,-3.674367904663086,0.6471684575080872,-16.25465202331543,-25.36943244934082,-1.2939549684524536,1.9196959733963013,-0.6375934481620789,-0.17463886737823486
3499.0,-16.921308517456055,-2.806633949279785,0.6477906703948975,-16.509859085083008,-24.977006912231445,0.2982272803783417,1.4116352796554565,-0.5150652527809143,0.17465829849243164
3500.0,-16.921293258666992,-1.9694691896438599,0.648277997970581,-16.599992752075195,-24.034440994262695,2.59563946723938,1.058580994606018,-0.24738167226314545,0.31335294246673584
3501.0,-16.92127799987793,-1.1617971658706665,0.6486051082611084,-16.99879264831543,-24.472389221191406,1.9361828565597534,0.794613242149353,-0.300918847322464,0.17301306128501892
3502.0,-16.9212703704834,-0.382579505443573,0.6487664580345154,-17.122526168823242,-24.612699508666992,1.4195300340652466,0.3573468327522278,-0.526175320148468,0.01921948790550232
3503.0,-16.921266555786133,0.38266560435295105,0.6487662196159363,-17.154909133911133,-24.84266471862793,1.2633382081985474,0.07627946138381958,-0.47535303235054016,-0.15121595561504364
3504.0,-16.921274185180664,1.1618820428848267,0.6486063003540039,-16.9995059967041,-24.609708786010742,1.7575101852416992,-0.49213624000549316,-0.14740730822086334,-0.04218972474336624
3505.0,-16.921281814575195,1.9695521593093872,0.6482828259468079,-16.616003036499023,-24.332151412963867,2.487121343612671,-0.7800288796424866,-0.08703041821718216,-0.23714077472686768
3506.0,-16.921297073364258,2.8067140579223633,0.6478001475334167,-16.29344367980957,-25.02880859375,0.5674229264259338,-1.1340912580490112,-0.46893876791000366,-0.18032099306583405
3507.0,-16.921323776245117,3.6744461059570312,0.6471815705299377,-16.103242874145508,-25.39303970336914,-1.1501044034957886,-1.5377854108810425,-0.6280151009559631,0.146480992436409
3508.0,-16.921356201171875,4.573863506317139,0.6464695334434509,-15.735212326049805,-25.139570236206055,0.4037889838218689,-2.0990755558013916,-0.4880271255970001,0.4344341456890106
3702.0,-15.586706161499023,-3.674327850341797,0.6502533555030823,-20.962432861328125,-27.249101638793945,1.5157196521759033,1.3546221256256104,-0.8073488473892212,0.0588923916220665
3703.0,-15.586687088012695,-2.806607723236084,0.6513757705688477,-21.615921020507812,-27.795459747314453,-0.666644275188446,0.9112311601638794,-1.1199530363082886,-0.41820043325424194
3704.0,-15.586675643920898,-1.9694520235061646,0.6522409319877625,-21.824541091918945,-28.316532135009766,-3.3337340354919434,0.5113985538482666,-1.6569358110427856,-0.5701649188995361
3705.0,-15.586668014526367,-1.1617854833602905,0.6528193950653076,-21.713773727416992,-27.732542037963867,-2.2788801193237305,0.23689614236354828,-1.5938786268234253,-0.09005940705537796
3706.0,-15.586661338806152,-0.38257166743278503,0.6531031131744385,-21.895170211791992,-27.614137649536133,-1.754292368888855,0.23757874965667725,-1.2719098329544067,-0.08971928805112839
3707.0,-15.586661338806152,0.38266971707344055,0.6531002521514893,-22.008852005004883,-27.730436325073242,-1.750398874282837,0.07708735018968582,-1.290803074836731,0.06656176596879959
3708.0,-15.586661338806152,1.1618818044662476,0.6528125405311584,-21.839933395385742,-27.93252944946289,-2.1685447692871094,0.030954377725720406,-1.6465537548065186,0.20745813846588135
3709.0,-15.586668014526367,1.9695451259613037,0.6522328853607178,-21.957460403442383,-28.728450775146484,-3.340942144393921,-0.18828319013118744,-1.6091099977493286,0.5518054962158203
3710.0,-15.586675643920898,2.8066978454589844,0.6513668894767761,-21.603416442871094,-27.991561889648438,-0.843943178653717,-0.6730437874794006,-1.242163062095642,0.29185470938682556
3711.0,-15.586691856384277,3.6744158267974854,0.6502427458763123,-21.11180877685547,-27.631025314331055,1.1638866662979126,-1.0777192115783691,-0.9987950921058655,-0.07786726951599121
3712.0,-15.586713790893555,4.573814392089844,0.6489219665527344,-20.638967514038086,-28.479215621948242,-0.5807059407234192,-1.7194328308105469,-0.880433976650238,-0.23010513186454773
3906.0,-14.299172401428223,-3.674302816390991,0.656487762928009,-25.424213409423828,-30.996810913085938,-1.5459061861038208,1.1388033628463745,-0.9552059769630432,0.022077707573771477
3907.0,-14.299165725708008,-2.806598663330078,0.6582574844360352,-25.40172004699707,-29.761653900146484,0.9636735320091248,0.4446178078651428,-0.2699357271194458,0.4983145594596863
3908.0,-14.299165725708008,-1.9694538116455078,0.6596184372901917,-25.564512252807617,-27.361270904541016,4.350047588348389,0.009883950464427471,0.6279346346855164,0.6807832717895508
3909.0,-14.299169540405273,-1.1617889404296875,0.6605259776115417,-26.147689819335938,-27.272075653076172,3.247011184692383,0.005078108515590429,0.8001275658607483,0.1814408153295517
3910.0,-14.299169540405273,-0.38257110118865967,0.6609694957733154,-26.368831634521484,-27.118789672851562,2.2919256687164307,-0.040707092732191086,0.3639482855796814,0.04146760329604149
3911.0,-14.299165725708008,0.38267776370048523,0.6609635353088379,-26.30401611328125,-27.109668731689453,2.2932989597320557,0.35721057653427124,0.16999980807304382,-0.23889827728271484
3912.0,-14.299162864685059,1.161894679069519,0.6605112552642822,-26.140169143676758,-27.48117446899414,2.998851776123047,0.2554490864276886,0.6580173373222351,-0.2988213002681732
3913.0,-14.299156188964844,1.9695565700531006,0.6595988273620605,-25.399065017700195,-27.6292724609375,4.485750675201416,0.3814172148704529,0.7370477914810181,-0.7596613168716431
3914.0,-14.299150466918945,2.806699514389038,0.6582324504852295,-25.065900802612305,-29.58767318725586,1.2276908159255981,-0.11197556555271149,-0.14612442255020142,-0.5259227156639099
3915.0,-14.29915714263916,3.674400806427002,0.6564545035362244,-25.252689361572266,-31.243864059448242,-1.502143144607544,-0.7974305748939514,-0.8443083167076111,-0.12074929475784302
3916.0,-14.29917049407959,4.573780536651611,0.6543379426002502,-25.281949996948242,-30.733766555786133,0.9036950469017029,-1.3261008262634277,-1.0606869459152222,0.46013641357421875
4110.0,-13.057127952575684,-3.6743245124816895,0.6661840081214905,-34.63602066040039,-33.725006103515625,1.549393892288208,-1.0268803834915161,-2.3475587368011475,-0.6797727346420288
4111.0,-13.057150840759277,-2.8066272735595703,0.6688814759254456,-37.156368255615234,-34.474788665771484,-2.1561033725738525,-1.3147825002670288,-4.1227641105651855,-1.1136945486068726
4112.0,-13.057182312011719,-1.969482421875,0.6709684133529663,-39.74821853637695,-35.66762161254883,-6.825541973114014,-1.5574219226837158,-5.759101390838623,-1.1147104501724243
4113.0,-13.057218551635742,-1.1618108749389648,0.6723724007606506,-41.42025375366211,-33.85297775268555,-5.113001346588135,-1.3384497165679932,-6.260680675506592,-0.2173091024160385
4114.0,-13.057236671447754,-0.3825768828392029,0.673064112663269,-43.066986083984375,-33.14213562011719,-4.460261821746826,-0.42318838834762573,-6.089321136474609,-0.17445968091487885
4115.0,-13.057235717773438,0.3826937675476074,0.6730560660362244,-43.02581787109375,-32.61745834350586,-4.427080154418945,0.7540053129196167,-6.190374374389648,0.33600303530693054
4116.0,-13.057207107543945,1.1619290113449097,0.672349214553833,-41.55253219604492,-34.22372055053711,-5.264780044555664,2.0211732387542725,-6.456924915313721,0.29827654361724854
4117.0,-13.057168006896973,1.9695966243743896,0.6709313988685608,-39.7244758605957,-36.084686279296875,-6.8594136238098145,1.895113229751587,-5.833504676818848,1.089936375617981
4118.0,-13.057129859924316,2.8067378997802734,0.6688317656517029,-37.07254409790039,-34.664424896240234,-2.3485639095306396,1.6877583265304565,-4.156543731689453,1.155385136604309
4119.0,-13.05710506439209,3.674431324005127,0.6661210060119629,-34.39455795288086,-34.164554595947266,1.2618083953857422,1.2636685371398926,-2.585663080215454,0.60561603307724
4120.0,-13.057089805603027,4.573793411254883,0.6629250645637512,-32.335140228271484,-35.31602096557617,-1.2333213090896606,0.383968710899353,-1.452747106552124,-0.0741911306977272
4313.0,-11.859010696411133,-4.5737786293029785,0.6753954887390137,-48.671329498291016,-40.1726188659668,-0.12869571149349213,-2.2905712127685547,-4.775721073150635,-1.5732183456420898
4314.0,-11.859070777893066,-3.6744303703308105,0.6802002191543579,-50.252376556396484,-41.63328170776367,-2.302128791809082,-3.4738335609436035,-3.7077884674072266,-0.29086756706237793
4315.0,-11.859160423278809,-2.8067502975463867,0.6843323111534119,-51.9853515625,-38.08995056152344,3.0293960571289062,-5.501653671264648,-1.3403022289276123,0.5672627091407776
4316.0,-11.859268188476562,-1.969595193862915,0.6875807046890259,-54.463863372802734,-32.462039947509766,9.45880126953125,-6.058622360229492,1.1141997575759888,0.7467564344406128
4317.0,-11.859367370605469,-1.1618847846984863,0.6897806525230408,-57.712074279785156,-30.52336311340332,8.062945365905762,-4.31303071975708,2.0605413913726807,-0.21639636158943176
4318.0,-11.859428405761719,-0.3825967609882355,0.6908690929412842,-59.328189849853516,-29.380037307739258,7.138999938964844,-1.5541764497756958,2.167917251586914,0.12349773198366165
4319.0,-11.859424591064453,0.3827275037765503,0.6908560991287231,-59.072322845458984,-29.715362548828125,7.102923393249512,2.1114065647125244,2.0691816806793213,-0.2785532474517822
4320.0,-11.859357833862305,1.162011981010437,0.6897440552711487,-57.39194107055664,-30.560333251953125,8.229043006896973,4.583972930908203,2.157447099685669,0.22661468386650085
4321.0,-11.859251976013184,1.9697190523147583,0.6875224709510803,-54.42913818359375,-32.79258728027344,9.577498435974121,6.360893249511719,1.1973932981491089,-0.7644636631011963
4322.0,-11.859137535095215,2.8068695068359375,0.6842551231384277,-51.65023422241211,-38.27955627441406,3.398303508758545,5.93379545211792,-1.288225531578064,-0.42039820551872253
4323.0,-11.859040260314941,3.6745431423187256,0.6801038384437561,-49.96951675415039,-41.94890213012695,-1.9137954711914062,3.8557589054107666,-3.563284158706665,0.12242048978805542
4324.0,-11.85897445678711,4.573885440826416,0.6752801537513733,-48.123565673828125,-40.08842849731445,0.6637420654296875,2.5732429027557373,-4.778379917144775,1.7493197917938232
4517.0,-10.70343017578125,-4.574104309082031,0.692754328250885,-67.1231918334961,-51.867855072021484,0.4901103377342224,-13.777322769165039,-2.7899699211120605,-1.2128933668136597
4518.0,-10.703612327575684,-3.674783945083618,0.7000808119773865,-72.82933807373047,-43.08246612548828,2.589657783508301,-13.291542053222656,-4.616955280303955,-2.2742955684661865
4519.0,-10.70378303527832,-2.8070430755615234,0.7065144777297974,-74.14244842529297,-40.37198257446289,-5.219554424285889,-10.389826774597168,-8.570036888122559,-2.0641138553619385
4520.0,-10.703998565673828,-1.9698116779327393,0.7116946578025818,-78.87549591064453,-42.0146369934082,-14.926328659057617,-9.928977966308594,-12.399650573730469,-1.8876416683197021
4521.0,-10.704224586486816,-1.1620216369628906,0.7153283357620239,-85.16278076171875,-38.69095230102539,-13.60538387298584,-7.8951416015625,-14.009306907653809,-0.25570809841156006
4522.0,-10.704360961914062,-0.38264110684394836,0.7171798348426819,-89.54792022705078,-37.24430847167969,-12.739579200744629,-2.6093759536743164,-14.48133659362793,-0.6369195580482483
4523.0,-10.704355239868164,0.38278234004974365,0.7171592116355896,-89.62256622314453,-37.11720275878906,-12.85404109954834,3.101986885070801,-14.396299362182617,0.520076334476471
4524.0,-10.704207420349121,1.1621590852737427,0.7152701020240784,-85.01506805419922,-39.48618698120117,-13.768333435058594,8.620339393615723,-14.243325233459473,0.4786697030067444
4525.0,-10.703973770141602,1.969940423965454,0.7116073369979858,-78.60791778564453,-42.723873138427734,-15.312666893005371,10.057478904724121,-12.44819450378418,1.9858520030975342
4526.0,-10.703752517700195,2.807164192199707,0.7064017653465271,-73.94002532958984,-41.03727340698242,-5.657557487487793,10.664301872253418,-8.458255767822266,2.0933125019073486
4527.0,-10.703573226928711,3.674898624420166,0.6999424695968628,-72.4652099609375,-43.50334930419922,2.022115468978882,13.380853652954102,-4.822167873382568,2.1468069553375244
4528.0,-10.703385353088379,4.574215412139893,0.6925898790359497,-67.05829620361328,-52.374244689941406,-0.3660610020160675,13.849199295043945,-2.817739963531494,1.1155494451522827
4721.0,-9.589011192321777,-4.574481964111328,0.7174714803695679,-92.16972351074219,-60.070655822753906,-2.9570538997650146,-12.076127052307129,-10.960465431213379,-2.3294661045074463
4722.0,-9.589777946472168,-3.6753180027008057,0.7295723557472229,-103.41364288330078,-78.41313934326172,-5.370476245880127,-11.497490882873535,-9.178563117980957,-0.3179844319820404
4723.0,-9.591080665588379,-2.8078744411468506,0.7410901784896851,-95.47854614257812,-83.2945785522461,7.540741443634033,-8.931021690368652,-3.376070022583008,0.6352593898773193
4724.0,-9.592726707458496,-1.970836877822876,0.7514477968215942,-93.10553741455078,-78.3863754272461,22.20301055908203,-6.164108753204346,1.3382108211517334,2.1132164001464844
4725.0,-9.594136238098145,-1.16288423538208,0.7595412731170654,-100.33208465576172,-76.37189483642578,20.833139419555664,-3.9592037200927734,2.6700398921966553,0.8574052453041077
4726.0,-9.594944953918457,-0.382966011762619,0.7640475034713745,-103.88566589355469,-73.51544952392578,20.63398551940918,-1.8129732608795166,2.9886434078216553,1.5573970079421997
4727.0,-9.594943046569824,0.38312774896621704,0.7640386819839478,-103.55345153808594,-74.32229614257812,20.413175582885742,2.716909646987915,2.9274728298187256,-1.4360482692718506
4728.0,-9.594123840332031,1.1630349159240723,0.7594990134239197,-99.48843383789062,-76.68146514892578,21.117753982543945,4.423960208892822,2.6547091007232666,-0.8086479902267456
4729.0,-9.592697143554688,1.9709845781326294,0.7513514161109924,-92.70905303955078,-78.45336151123047,22.286592483520508,6.707381725311279,1.232995629310608,-1.9533872604370117
4730.0,-9.591048240661621,2.8080155849456787,0.7409467697143555,-94.84515380859375,-82.98722076416016,8.400843620300293,8.990440368652344,-3.54752779006958,-0.19204118847846985
4731.0,-9.589743614196777,3.675447940826416,0.7293918132781982,-102.76691436767578,-78.49803924560547,-4.6935343742370605,11.893189430236816,-8.977707862854004,0.33820050954818726
4732.0,-9.588963508605957,4.57460355758667,0.7172626256942749,-92.15837860107422,-60.16256332397461,-1.7566087245941162,12.684764862060547,-11.061776161193848,2.815277576446533
4926.0,-8.520215034484863,-3.6780545711517334,0.7813463807106018,-104.53611755371094,-93.31110382080078,7.959636211395264,0.7960231304168701,-4.260265827178955,-6.870743751525879
4927.0,-8.524231910705566,-2.8110597133636475,0.8049997091293335,-115.52458190917969,-109.87982940673828,-16.059972763061523,-1.0793744325637817,-21.226839065551758,-6.668262958526611
4928.0,-8.528270721435547,-1.9737646579742432,0.8284482359886169,-120.35118103027344,-112.06939697265625,-41.73263931274414,-3.7188756465911865,-33.58619689941406,-3.5874361991882324
4929.0,-8.531651496887207,-1.1649327278137207,0.8485173583030701,-119.25032043457031,-92.8267822265625,-42.019474029541016,-4.921245098114014,-34.57698059082031,0.45095154643058777
4930.0,-8.533549308776855,-0.38370153307914734,0.859636664390564,-118.18762969970703,-80.83448028564453,-42.74782943725586,-0.5034639835357666,-34.23835372924805,-1.5993069410324097
4931.0,-8.53353214263916,0.38390180468559265,0.8596221208572388,-117.96888732910156,-80.710205078125,-43.07651138305664,2.2029225826263428,-34.12724685668945,2.0515449047088623
4932.0,-8.531612396240234,1.1651276350021362,0.8485040068626404,-117.25114440917969,-92.62893676757812,-41.348941802978516,6.652531623840332,-34.62160873413086,-0.044740378856658936
4933.0,-8.528243064880371,1.9739454984664917,0.8284024000167847,-119.86406707763672,-112.32884979248047,-41.82065963745117,4.059688091278076,-33.07218933105469,3.5587313175201416
4934.0,-8.524195671081543,2.8112287521362305,0.8048428297042847,-115.07379913330078,-110.57179260253906,-16.422456741333008,1.815165400505066,-21.01274299621582,6.499988079071045
4935.0,-8.520157814025879,3.678201675415039,0.7811031341552734,-103.86943054199219,-94.7576904296875,6.629825592041016,0.06054731830954552,-4.823946475982666,6.984123229980469
4936.0,-8.516650199890137,4.576446056365967,0.7572818994522095,-104.26649475097656,-93.08795928955078,4.82716703414917,0.9139050245285034,-0.8112307786941528,0.1613813191652298
5130.0,-7.495972633361816,-3.685253143310547,0.878982663154602,-113.22320556640625,-98.81082153320312,-33.57810592651367,-13.616317749023438,-27.27714729309082,-8.4368896484375
5131.0,-7.504569053649902,-2.8182387351989746,0.9320620894432068,-134.0523681640625,-81.42284393310547,-60.716346740722656,-23.807815551757812,-9.274245262145996,-12.304610252380371
5132.0,-7.512992858886719,-1.9799507856369019,0.9811726808547974,-138.39051818847656,-47.936676025390625,-35.76681137084961,-23.531675338745117,8.709831237792969,7.7599711418151855
5133.0,-7.519904613494873,-1.1692813634872437,1.0195015668869019,-119.63684844970703,-9.34493350982666,-2.7856619358062744,-13.056456565856934,16.96441078186035,3.6296629905700684
5134.0,-7.523510456085205,-0.38527390360832214,1.0394911766052246,-111.32066345214844,5.8746795654296875,-4.736420154571533,-3.5525262355804443,23.437471389770508,2.3016538619995117
5135.0,-7.523452281951904,0.38552597165107727,1.0394134521484375,-111.23960876464844,4.125600814819336,-4.609267711639404,5.345080852508545,23.47265625,-2.425771474838257
5136.0,-7.519768238067627,1.1694990396499634,1.0193387269973755,-118.37488555908203,-10.034408569335938,-2.497792959213257,13.800848960876465,17.083829879760742,-2.7454583644866943
5137.0,-7.512840270996094,1.9801127910614014,0.980991780757904,-136.37646484375,-47.991329193115234,-34.020015716552734,25.19498062133789,7.88234281539917,-7.949349403381348
5138.0,-7.504443645477295,2.818347930908203,0.9318628907203674,-133.98797607421875,-81.78162384033203,-60.334835052490234,23.955554962158203,-9.551444053649902,12.931496620178223
5139.0,-7.495871543884277,3.6853489875793457,0.8787455558776855,-112.06288146972656,-98.38123321533203,-30.69485855102539,14.555344581604004,-26.425029754638672,8.286128044128418
5140.0,-7.487789154052734,4.58247184753418,0.8268900513648987,-112.79389953613281,-101.63697814941406,-16.316617965698242,5.594234943389893,-20.57386016845703,12.040122985839844
5334.0,-6.515491962432861,-3.6987595558166504,1.0422316789627075,-67.93648529052734,-7.108405113220215,0.2573106288909912,-52.910865783691406,22.824729919433594,5.180989742279053
5335.0,-6.53165340423584,-2.8321077823638916,1.134897232055664,-34.18856430053711,59.541717529296875,16.51228141784668,-35.35972595214844,33.82682418823242,11.079689025878906
5336.0,-6.546013832092285,-1.9913357496261597,1.2110785245895386,6.529721260070801,98.59557342529297,18.763349533081055,-19.472963333129883,40.32801818847656,18.156766891479492
5337.0,-6.556244850158691,-1.1763564348220825,1.263874888420105,49.303401947021484,126.45575714111328,22.430295944213867,-4.302314758300781,43.781497955322266,8.940875053405762
5338.0,-6.561186790466309,-0.38759371638298035,1.2899080514907837,69.3210220336914,129.6464385986328,22.326557159423828,0.41980093717575073,46.02174377441406,3.795513391494751
5339.0,-6.561084270477295,0.38791659474372864,1.2896956205368042,69.03744506835938,128.03672790527344,21.559959411621094,1.1462068557739258,44.57200622558594,-4.5224289894104
5340.0,-6.555976390838623,1.1765912771224976,1.2633614540100098,47.04434585571289,119.36968231201172,21.234540939331055,5.653178691864014,41.8004035949707,-9.0223970413208
5341.0,-6.545677661895752,1.9914538860321045,1.2104616165161133,4.030638217926025,91.82245635986328,17.635923385620117,19.78447914123535,38.850833892822266,-17.150774002075195
5342.0,-6.531422138214111,2.8321497440338135,1.1344517469406128,-35.82569885253906,56.22037124633789,15.747450828552246,36.301334381103516,32.4061164855957,-9.5752592086792
5343.0,-6.515392303466797,3.6988024711608887,1.0419930219650269,-67.00287628173828,-8.2156343460083,-1.4385939836502075,51.76117706298828,21.54601287841797,-5.346940040588379
5344.0,-6.500331878662109,4.593662738800049,0.944061815738678,-114.51405334472656,-90.06608581542969,-54.311500549316406,38.63154602050781,-7.281211853027344,2.2987654209136963
5538.0,-5.574179649353027,-3.719780445098877,1.2498162984848022,60.646488189697266,86.84840393066406,20.10613441467285,-38.39840316772461,33.42226791381836,27.78193473815918
5539.0,-5.594982147216797,-2.851825714111328,1.37298583984375,115.84173583984375,122.34526062011719,17.726823806762695,-6.011718273162842,50.07302474975586,27.051774978637695
5540.0,-5.609158039093018,-2.005635976791382,1.4678606986999512,150.82252502441406,135.89588928222656,15.775419235229492,7.910342216491699,59.763675689697266,19.759414672851562
5541.0,-5.616363048553467,-1.1835346221923828,1.5288046598434448,173.10267639160156,134.9302978515625,12.388436317443848,7.465691089630127,63.359310150146484,11.218703269958496
5542.0,-5.619018077850342,-0.3894508481025696,1.5568293333053589,183.08665466308594,131.09288024902344,13.01949405670166,4.190380096435547,62.64132308959961,1.665195345878601
5543.0,-5.618899822235107,0.38991716504096985,1.5564565658569336,179.13272094726562,127.74205780029297,12.328604698181152,-2.703169345855713,60.79438018798828,-3.293764352798462
5544.0,-5.616089344024658,1.1838780641555786,1.527852177619934,164.38880920410156,126.99574279785156,12.441072463989258,-7.045315742492676,59.273719787597656,-11.165909767150879
5545.0,-5.60890007019043,2.005708932876587,1.4668841361999512,142.9553680419922,126.53236389160156,14.905549049377441,-5.939117908477783,55.749813079833984,-17.77031707763672
5546.0,-5.594860076904297,2.8518195152282715,1.3725242614746094,114.3897705078125,119.49089813232422,18.111465454101562,5.926137924194336,49.81214904785156,-23.720735549926758
5547.0,-5.574199199676514,3.7198965549468994,1.2497886419296265,62.29251480102539,88.63983917236328,21.338523864746094,39.08778381347656,35.40505599975586,-27.485546112060547
5548.0,-5.551694869995117,4.611902713775635,1.1091607809066772,-5.938974380493164,15.023324012756348,15.773292541503906,59.845157623291016,22.853696823120117,-11.893037796020508
5742.0,-4.658328533172607,-3.7426586151123047,1.4593424797058105,131.3029327392578,128.2621612548828,15.302797317504883,8.643691062927246,43.250370025634766,37.49655532836914
5743.0,-4.6724324226379395,-2.8674166202545166,1.6002471446990967,183.13571166992188,160.51905822753906,14.519577026367188,22.002580642700195,52.812965393066406,34.592220306396484
5744.0,-4.677106857299805,-2.01285719871521,1.7014321088790894,215.39468383789062,167.4823760986328,8.936781883239746,27.141735076904297,53.26668930053711,22.545753479003906
5745.0,-4.676854610443115,-1.1858196258544922,1.761454463005066,233.58261108398438,158.35081481933594,9.176236152648926,18.499345779418945,50.22365951538086,10.617480278015137
5746.0,-4.67582893371582,-0.38985317945480347,1.7873952388763428,234.19363403320312,147.13157653808594,5.829554557800293,6.606727123260498,48.10383605957031,1.7916268110275269
5747.0,-4.675815105438232,0.3903992474079132,1.78699791431427,230.71316528320312,143.4529571533203,6.43092679977417,-5.979221820831299,47.40756607055664,-3.743804693222046
5748.0,-4.676828861236572,1.1861486434936523,1.760421872138977,220.65284729003906,148.56883239746094,9.205533027648926,-17.25548553466797,48.903236389160156,-11.122031211853027
5749.0,-4.677151203155518,2.0128276348114014,1.7006843090057373,206.83827209472656,161.62806701660156,9.369688987731934,-25.915739059448242,52.34091567993164,-20.257017135620117
5750.0,-4.6725687980651855,2.867412805557251,1.6004209518432617,185.03289794921875,163.33982849121094,14.049574851989746,-23.395490646362305,55.008060455322266,-33.62153625488281
5751.0,-4.6583943367004395,3.7429468631744385,1.4598612785339355,137.68638610839844,131.54689025878906,14.289009094238281,-9.619239807128906,46.40263366699219,-41.39603042602539
5752.0,-4.63569974899292,4.635993957519531,1.2907181978225708,91.74859619140625,89.99420928955078,20.564714431762695,32.00355911254883,31.75434684753418,-32.02998733520508
5946.0,-3.7564332485198975,-3.7563111782073975,1.6438130140304565,174.87159729003906,175.89662170410156,16.136369705200195,32.18062210083008,44.018653869628906,43.57121276855469
5947.0,-3.757415771484375,-2.8702564239501953,1.7847079038619995,198.55323791503906,180.841552734375,4.136471271514893,39.881011962890625,39.17490005493164,30.614303588867188
5948.0,-3.7531626224517822,-2.0106210708618164,1.8759984970092773,216.09397888183594,166.3572540283203,-2.8914377689361572,36.85615921020508,29.183029174804688,16.372499465942383
5949.0,-3.749742031097412,-1.1840542554855347,1.9264299869537354,219.242431640625,146.0896453857422,-4.563762187957764,24.34187126159668,20.368080139160156,5.704005718231201
5950.0,-3.7482335567474365,-0.38943716883659363,1.9479405879974365,215.67385864257812,133.41139221191406,-6.365135192871094,7.399113178253174,17.85370635986328,1.2960225343704224
5951.0,-3.7483041286468506,0.38985931873321533,1.947684407234192,213.34854125976562,131.72271728515625,-5.219289302825928,-8.03033447265625,17.384496688842773,-2.4086482524871826
5952.0,-3.74989914894104,1.1842535734176636,1.9259146451950073,211.27645874023438,142.09918212890625,-5.174984455108643,-23.782758712768555,21.383068084716797,-6.2349090576171875
5953.0,-3.753347635269165,2.0105950832366943,1.8758599758148193,213.39047241210938,165.9930877685547,-1.071207880973816,-38.31401443481445,28.816144943237305,-15.170896530151367
5954.0,-3.7575297355651855,2.8703553676605225,1.7853329181671143,205.83106994628906,184.36697387695312,3.1853716373443604,-42.157527923583984,39.69203567504883,-30.979169845581055
5955.0,-3.7562825679779053,3.7567591667175293,1.644585371017456,178.8419189453125,176.55499267578125,15.794981002807617,-32.17047119140625,44.45123291015625,-45.605567932128906
5956.0,-3.7424910068511963,4.658550262451172,1.4592969417572021,128.8839874267578,132.7007293701172,16.189172744750977,-9.20792007446289,37.877986907958984,-44.70797348022461
6149.0,-2.867502450942993,-4.67217493057251,1.5995128154754639,163.2830352783203,184.402587890625,13.806809425354004,23.230884552001953,33.4140510559082,54.24854278564453
6150.0,-2.8703055381774902,-3.7574193477630615,1.7842291593551636,181.917236328125,204.083251953125,2.913187026977539,41.94953918457031,31.369749069213867,39.46945571899414
6151.0,-2.8648436069488525,-2.864842414855957,1.9098634719848633,182.63462829589844,185.66810607910156,-2.736299991607666,45.60636901855469,17.656448364257812,17.843841552734375
6152.0,-2.860410213470459,-2.006981611251831,1.9856492280960083,185.47866821289062,159.93150329589844,-0.291839599609375,31.562196731567383,9.602555274963379,8.215827941894531
6153.0,-2.858823537826538,-1.1829614639282227,2.0275847911834717,183.69058227539062,157.82611083984375,2.1102848052978516,15.671393394470215,10.078304290771484,5.054638385772705
6154.0,-2.858471155166626,-0.3892832100391388,2.046264410018921,184.98643493652344,152.87013244628906,5.637680530548096,6.284953594207764,10.602242469787598,-1.5774153470993042
6155.0,-2.858503818511963,0.3895256817340851,2.046203851699829,181.82241821289062,151.2613525390625,5.171102523803711,-7.608321189880371,11.398565292358398,0.5553788542747498
6156.0,-2.858914852142334,1.1831077337265015,2.027549982070923,182.0830078125,154.45384216308594,2.184495687484741,-17.04374122619629,10.134642601013184,-4.7702107429504395
6157.0,-2.860473871231079,2.0070602893829346,1.9858934879302979,184.56118774414062,158.6194305419922,-0.5397778153419495,-33.01107406616211,9.669320106506348,-7.8615803718566895
6158.0,-2.8647403717041016,2.86505126953125,1.9104108810424805,185.20375061035156,184.29017639160156,-3.693748950958252,-46.459171295166016,17.146482467651367,-18.116859436035156
6159.0,-2.869987964630127,3.757814407348633,1.7845592498779297,180.41586303710938,200.34280395507812,3.947183132171631,-40.792850494384766,30.776643753051758,-40.024166107177734
6160.0,-2.867145299911499,4.672508239746094,1.5993986129760742,160.0274200439453,182.12106323242188,13.743910789489746,-22.541486740112305,34.72380065917969,-52.899410247802734
6353.0,-2.0130832195281982,-4.676856994628906,1.7002507448196411,162.22068786621094,207.51417541503906,9.289267539978027,26.499343872070312,20.67436981201172,52.33053207397461
6354.0,-2.0108025074005127,-3.753166437149048,1.8751572370529175,165.44952392578125,213.97792053222656,-0.547468900680542,38.68356704711914,15.142767906188965,29.102359771728516
6355.0,-2.00711989402771,-2.8604276180267334,1.9852935075759888,156.05320739746094,184.48245239257812,-1.0582600831985474,32.46731948852539,8.46722412109375,10.200111389160156
6356.0,-2.0054776668548584,-2.0053911209106445,2.0509605407714844,166.10272216796875,167.76487731933594,2.187244415283203,21.044797897338867,6.862034797668457,7.917091369628906
6357.0,-2.0049078464508057,-1.1825031042099,2.0891802310943604,168.53761291503906,154.54393005371094,-5.417292594909668,10.95541000366211,7.769779682159424,4.2367424964904785
6358.0,-2.0047099590301514,-0.3892512023448944,2.1067209243774414,174.81056213378906,140.9287109375,-5.812047958374023,1.749338984489441,8.252410888671875,-1.327105164527893
6359.0,-2.0047247409820557,0.3893907070159912,2.1067750453948975,175.00088500976562,141.76585388183594,-5.379878520965576,-2.643871545791626,7.781143665313721,1.1167640686035156
6360.0,-2.004915475845337,1.1826180219650269,2.0893094539642334,167.64830017089844,153.75550842285156,-5.0844879150390625,-12.09165096282959,7.939182758331299,-4.661178112030029
6361.0,-2.0054309368133545,2.005542039871216,2.0512406826019287,165.9832763671875,167.9132537841797,1.6423064470291138,-22.077232360839844,7.61592960357666,-7.607723712921143
6362.0,-2.006993055343628,2.860694646835327,1.9856127500534058,159.0063018798828,187.64662170410156,0.7013049721717834,-32.988677978515625,8.438796043395996,-10.251418113708496
6363.0,-2.0106475353240967,3.7534518241882324,1.875174641609192,166.35008239746094,217.0302734375,-1.4307477474212646,-37.175994873046875,16.31772804260254,-29.406841278076172
6364.0,-2.012988805770874,4.677030086517334,1.7000532150268555,166.77162170410156,216.04995727539062,9.515393257141113,-26.022550582885742,21.219816207885742,-53.453243255615234
6557.0,-1.1862937211990356,-4.676586151123047,1.760418176651001,149.7098846435547,222.455810546875,9.044747352600098,17.79155731201172,11.32861328125,48.632381439208984
6558.0,-1.1844143867492676,-3.749633312225342,1.9256551265716553,141.65428161621094,211.79446411132812,-4.980508804321289,24.363710403442383,6.584427356719971,21.65057373046875
6559.0,-1.1832207441329956,-2.8587989807128906,2.027181386947632,154.63909912109375,182.45626831054688,2.2522687911987305,17.12345314025879,5.159234523773193,9.657402038574219
6560.0,-1.1827049255371094,-2.0048272609710693,2.0890281200408936,152.78912353515625,167.63758850097656,-5.616240978240967,12.220949172973633,4.318485736846924,7.554091453552246
6561.0,-1.1822479963302612,-1.1820868253707886,2.126112699508667,160.61338806152344,161.1194610595703,4.314254283905029,9.94088077545166,0.16281355917453766,0.6750911474227905
6562.0,-1.1820486783981323,-0.3892402946949005,2.142860174179077,158.49969482421875,158.6660919189453,1.8391742706298828,1.1818591356277466,-2.02493953704834,3.7329745292663574
6563.0,-1.1820544004440308,0.38933488726615906,2.142930269241333,159.04774475097656,157.9004364013672,2.3588199615478516,-2.7884461879730225,-1.5804692506790161,-4.362285137176514
6564.0,-1.182235598564148,1.1822134256362915,2.126293897628784,161.09681701660156,162.10862731933594,4.152225494384766,-11.434915542602539,0.2627260386943817,0.21668694913387299
6565.0,-1.182648777961731,2.0050089359283447,2.089276075363159,154.62025451660156,169.46229553222656,-5.175614833831787,-12.322684288024902,4.772670269012451,-7.977934837341309
6566.0,-1.1831620931625366,2.8590447902679443,2.027374505996704,155.84986877441406,183.88088989257812,0.5416188836097717,-17.700498580932617,4.873544216156006,-9.792939186096191
6567.0,-1.1844373941421509,3.749868392944336,1.9257659912109375,144.2470245361328,219.20054626464844,-4.638824939727783,-23.82351303100586,5.830981731414795,-21.534500122070312
6568.0,-1.1864038705825806,4.676753520965576,1.7605704069137573,156.52247619628906,233.16024780273438,8.529654502868652,-17.510969161987305,11.062902450561523,-50.59292221069336
6762.0,-0.3899090886116028,-3.748058795928955,1.9476203918457031,132.67185974121094,212.53024291992188,-5.977128982543945,8.666579246520996,2.6821112632751465,17.686790466308594
6763.0,-0.38961318135261536,-2.8583662509918213,2.0460264682769775,151.45433044433594,182.55039978027344,5.888099193572998,7.535454273223877,-0.6526637673377991,11.321826934814453
6764.0,-0.3894875645637512,-2.004600763320923,2.1066200733184814,142.19639587402344,175.04344177246094,-5.7137227058410645,2.5831737518310547,-1.1257613897323608,7.957664489746094
6765.0,-0.38941240310668945,-1.1819149255752563,2.142838716506958,157.88963317871094,158.1551513671875,1.840168833732605,1.2265300750732422,3.6014952659606934,-1.9998786449432373
6766.0,-0.389403373003006,-0.3892703652381897,2.1590287685394287,154.02772521972656,153.54327392578125,-4.161911487579346,0.699677050113678,4.702747821807861,4.9431304931640625
6767.0,-0.3893941640853882,0.389327734708786,2.159109354019165,154.42945861816406,154.07627868652344,-3.3059747219085693,-2.8900790214538574,4.924545764923096,-4.68574857711792
6768.0,-0.38939255475997925,1.1820319890975952,2.1430370807647705,157.59742736816406,158.55580139160156,0.270758718252182,-3.2384493350982666,3.932260274887085,1.8648016452789307
6769.0,-0.3894408345222473,2.004777669906616,2.106870412826538,141.39015197753906,176.54530334472656,-4.558421611785889,-3.558539867401123,-1.3894842863082886,-8.28158187866211
6770.0,-0.3895585238933563,2.858564615249634,2.0462646484375,152.76499938964844,187.61981201171875,5.745569229125977,-8.11215877532959,-1.257150650024414,-10.637370109558105
6771.0,-0.389849454164505,3.7482447624206543,1.9478710889816284,130.98362731933594,218.1444091796875,-5.392206192016602,-8.198655128479004,2.6259307861328125,-18.63640022277832
6772.0,-0.3903104066848755,4.675818920135498,1.7874974012374878,144.79185485839844,235.85435485839844,5.677356243133545,-5.80294132232666,1.959542155265808,-47.81065368652344
41.0,-48.74947738647461,5.507628440856934,0.8318285346031189,33.056488037109375,10.736647605895996,0.9827813506126404,-0.7220868468284607,-0.6452835202217102,-0.02856460027396679
42.0,-48.749481201171875,6.474204063415527,0.8318419456481934,32.790042877197266,10.679755210876465,1.0040901899337769,-0.879463255405426,-0.7095137238502502,-0.021164026111364365
43.0,-48.74948501586914,7.476074695587158,0.8318585157394409,32.504276275634766,10.590157508850098,1.121578335762024,-1.0390311479568481,-0.7221360802650452,-0.03006572648882866
44.0,-48.749488830566406,8.514533042907715,0.8318780660629272,32.15427780151367,10.572836875915527,1.1814595460891724,-1.2256499528884888,-0.6479751467704773,-0.031205981969833374
45.0,-48.74950408935547,9.590910911560059,0.8319005370140076,31.56698989868164,10.2786283493042,1.0646151304244995,-1.398401141166687,-0.6576877236366272,-0.05405681952834129
46.0,-48.749507904052734,10.706595420837402,0.8319267630577087,31.07217788696289,10.230996131896973,1.1241179704666138,-1.547799825668335,-0.7149442434310913,-0.07267531752586365
47.0,-48.749515533447266,11.863020896911621,0.8319576978683472,30.402814865112305,9.96890640258789,1.0028425455093384,-1.704453468322754,-0.6713426113128662,-0.07038605213165283
48.0,-48.749534606933594,13.061675071716309,0.831992506980896,29.713090896606445,9.788680076599121,0.9996169805526733,-1.8705769777297974,-0.6222694516181946,-0.07790537923574448
49.0,-48.749542236328125,14.304101943969727,0.8320317268371582,28.89741325378418,9.546401023864746,0.9452296495437622,-2.0084149837493896,-0.6306372284889221,-0.050083186477422714
50.0,-48.74955749511719,15.591897010803223,0.8320764899253845,28.033525466918945,9.290343284606934,0.9991406202316284,-2.1445398330688477,-0.5617390275001526,-0.05097788944840431
51.0,-48.749576568603516,16.926719665527344,0.8321260213851929,27.049869537353516,9.040660858154297,1.021809697151184,-2.2840805053710938,-0.5008507370948792,-0.1055281013250351
52.0,-48.749595642089844,18.310287475585938,0.8321800827980042,25.833988189697266,8.608643531799316,0.8578266501426697,-2.3876330852508545,-0.5069587826728821,-0.12486465275287628
53.0,-48.74960708618164,19.74437713623047,0.8322402238845825,24.63549041748047,8.290923118591309,0.8903094530105591,-2.4744298458099365,-0.48844432830810547,-0.11136024445295334
54.0,-48.7496337890625,21.230836868286133,0.8323058485984802,23.265485763549805,7.835799694061279,0.7454847097396851,-2.52602219581604,-0.4615230858325958,-0.12236453592777252
55.0,-48.74966049194336,22.771577835083008,0.8323764801025391,21.868974685668945,7.399277687072754,0.678135335445404,-2.562225103378296,-0.4096889793872833,-0.11925011873245239
56.0,-48.74967956542969,24.368587493896484,0.8324524164199829,20.4056339263916,6.954612731933594,0.6959033012390137,-2.5954086780548096,-0.4058716595172882,-0.1323259025812149
57.0,-48.74970245361328,26.023908615112305,0.8325334787368774,18.803007125854492,6.450592994689941,0.6358466148376465,-2.5924947261810303,-0.4324641823768616,-0.10573895275592804
58.0,-48.74972915649414,27.739681243896484,0.8326202034950256,17.181974411010742,5.963054180145264,0.6297535300254822,-2.552274465560913,-0.37284234166145325,-0.11403978615999222
59.0,-48.749759674072266,29.518108367919922,0.8327111005783081,15.483176231384277,5.369934558868408,0.5621799826622009,-2.5017764568328857,-0.3041517436504364,-0.11036359518766403
60.0,-48.749786376953125,31.36147689819336,0.8328056931495667,13.716073036193848,4.775374889373779,0.4901580214500427,-2.4699037075042725,-0.24381878972053528,-0.07137599587440491
61.0,-48.74981689453125,33.272159576416016,0.8329028487205505,11.850807189941406,4.156120300292969,0.39076709747314453,-2.410386085510254,-0.1825830638408661,-0.10880999267101288
62.0,-48.749847412109375,35.25261306762695,0.8329997658729553,10.023755073547363,3.6478219032287598,0.41668108105659485,-2.306486129760742,-0.12554790079593658,-0.08597323298454285
63.0,-48.749874114990234,37.305389404296875,0.8330925703048706,8.100159645080566,3.0229780673980713,0.25591161847114563,-2.140960931777954,-0.0728202685713768,-0.091129831969738
64.0,-48.74990463256836,39.43313217163086,0.8331776261329651,6.290844440460205,2.4356272220611572,0.1849215179681778,-1.9225338697433472,-0.009436187334358692,-0.05536290258169174
65.0,-48.749935150146484,41.63856887817383,0.8332504034042358,4.688934803009033,1.9646756649017334,0.1399419754743576,-1.6449644565582275,0.05935707315802574,-0.0822148248553276
66.0,-48.74994659423828,43.92455291748047,0.8333038687705994,3.372913122177124,1.6159627437591553,0.16736090183258057,-1.3053394556045532,0.08782374113798141,-0.011647933162748814
67.0,-48.749969482421875,46.294002532958984,0.8333288431167603,2.2648067474365234,1.307206153869629,0.04641672596335411,-0.894721508026123,0.028517452999949455,-0.07319401949644089
68.0,-48.74999237060547,48.74998474121094,0.833333432674408,1.0935651063919067,1.1015053987503052,0.09490025788545609,-0.5293350219726562,-0.018601836636662483,-0.010145076550543308
245.0,-46.29252624511719,5.507562637329102,0.8263882994651794,28.62010383605957,7.647804260253906,-0.904274046421051,-1.0916091203689575,-0.13816262781620026,-0.04712963476777077
246.0,-46.292537689208984,6.474124908447266,0.8264508843421936,28.404054641723633,7.672362327575684,-0.9011645913124084,-1.3051795959472656,-0.1683015674352646,-0.03983396664261818
247.0,-46.29254913330078,7.475982666015625,0.8265271782875061,28.02676773071289,7.485531330108643,-0.9778189659118652,-1.485945701599121,-0.13810692727565765,-0.023285705596208572
248.0,-46.292572021484375,8.514426231384277,0.8266175985336304,27.718992233276367,7.539141654968262,-0.9693518280982971,-1.7135955095291138,-0.08763401955366135,-0.02389540523290634
249.0,-46.292598724365234,9.590790748596191,0.8267221450805664,27.261213302612305,7.316985607147217,-1.0040103197097778,-1.9163990020751953,-0.11678989231586456,-0.022880392149090767
250.0,-46.292625427246094,10.706460952758789,0.826843798160553,26.84151840209961,7.329299449920654,-0.9440074563026428,-2.084604024887085,-0.16212047636508942,-0.06239994615316391
251.0,-46.29264831542969,11.862874984741211,0.8269848227500916,26.21407699584961,7.160769939422607,-1.0214787721633911,-2.3094050884246826,-0.12687386572360992,-0.08566039800643921
252.0,-46.292686462402344,13.061515808105469,0.827144980430603,25.625856399536133,7.131705284118652,-0.835293710231781,-2.523289680480957,-0.09479330480098724,-0.09703993052244186
253.0,-46.292724609375,14.303932189941406,0.8273252844810486,24.872947692871094,6.985772132873535,-0.901891827583313,-2.6894068717956543,-0.14016710221767426,-0.08268227428197861
254.0,-46.292762756347656,15.591714859008789,0.8275289535522461,24.07371711730957,6.772444725036621,-0.9183582663536072,-2.8655126094818115,-0.10717014968395233,-0.08633088320493698
255.0,-46.29281234741211,16.92652702331543,0.8277555108070374,23.31037712097168,6.729033946990967,-0.7906877994537354,-3.070798397064209,-0.06512882560491562,-0.16626544296741486
256.0,-46.29286193847656,18.310083389282227,0.8280053734779358,22.343338012695312,6.490146160125732,-0.8340502977371216,-3.2204840183258057,-0.0719229057431221,-0.18173187971115112
257.0,-46.29292297363281,19.744169235229492,0.8282819986343384,21.366849899291992,6.33869743347168,-0.7251310348510742,-3.3631672859191895,-0.07056628912687302,-0.11368519812822342
258.0,-46.29297637939453,21.230621337890625,0.8285845518112183,20.257532119750977,6.137499809265137,-0.7122529745101929,-3.4600424766540527,-0.08403133600950241,-0.11610942333936691
259.0,-46.29303741455078,22.771360397338867,0.8289113640785217,19.097976684570312,5.906551837921143,-0.640652596950531,-3.5321176052093506,-0.019133226945996284,-0.11097384989261627
260.0,-46.293113708496094,24.368364334106445,0.8292627930641174,17.85099983215332,5.58689546585083,-0.6232765316963196,-3.62015700340271,0.005449824035167694,-0.1435328871011734
261.0,-46.29317855834961,26.023683547973633,0.8296384215354919,16.559133529663086,5.306283950805664,-0.606879472732544,-3.66581392288208,-0.0345756821334362,-0.0972064882516861
262.0,-46.29324722290039,27.739458084106445,0.8300372362136841,15.219297409057617,5.057458400726318,-0.5397872924804688,-3.6530003547668457,0.039223331958055496,-0.1072077602148056
263.0,-46.293331146240234,29.517887115478516,0.8304539918899536,13.76401424407959,4.618448734283447,-0.5599784851074219,-3.5768258571624756,0.09987352788448334,-0.15200036764144897
264.0,-46.29340362548828,31.361265182495117,0.8308840394020081,12.41001033782959,4.308170318603516,-0.3846578299999237,-3.5223233699798584,0.07056063413619995,-0.08740799874067307
265.0,-46.29349136352539,33.27195358276367,0.8313217759132385,10.90422248840332,3.899726390838623,-0.4525609016418457,-3.4049696922302246,0.05289766564965248,-0.11740238219499588
266.0,-46.2935791015625,35.25242233276367,0.8317574262619019,9.504448890686035,3.706726312637329,-0.2824256718158722,-3.2405779361724854,0.06504074484109879,-0.0822756215929985
267.0,-46.29366683959961,37.30521774291992,0.832176685333252,8.001827239990234,3.402500629425049,-0.27638912200927734,-2.9974541664123535,0.09093094617128372,-0.09891067445278168
268.0,-46.293739318847656,39.432979583740234,0.8325642347335815,6.59428071975708,3.1579999923706055,-0.16938470304012299,-2.644857168197632,0.12214315682649612,-0.01495432760566473
269.0,-46.293819427490234,41.6384391784668,0.8328961730003357,5.228947162628174,2.9073171615600586,-0.18179264664649963,-2.1806142330169678,0.11726297438144684,-0.10566871613264084
270.0,-46.293880462646484,43.924442291259766,0.8331476449966431,4.034611225128174,2.7541024684906006,0.00013846770161762834,-1.6821401119232178,0.1051337793469429,0.011317052878439426
271.0,-46.293941497802734,46.29393768310547,0.83328777551651,2.6513805389404297,2.5694496631622314,-0.16533327102661133,-1.153883934020996,0.13401992619037628,-0.1526729017496109
272.0,-46.294002532958984,48.74996566772461,0.8333292603492737,1.3587111234664917,2.2933218479156494,0.03379553556442261,-0.9014167189598083,0.07760390639305115,-0.0871087983250618
449.0,-43.92226791381836,5.507488250732422,0.8167239427566528,24.776872634887695,5.942783832550049,0.814612865447998,-1.3831254243850708,-0.7300400733947754,-0.048802658915519714
450.0,-43.92228698730469,6.474036693572998,0.816874623298645,24.57625961303711,6.044814586639404,0.8380675911903381,-1.6604958772659302,-0.7289138436317444,-0.02349935844540596
451.0,-43.92230987548828,7.4758806228637695,0.8170570731163025,24.290721893310547,5.991059303283691,0.903325080871582,-1.8859692811965942,-0.708963930606842,0.011289659887552261
452.0,-43.92233657836914,8.514311790466309,0.8172721862792969,23.981552124023438,6.018002033233643,0.8902143836021423,-2.1354739665985107,-0.691342830657959,-0.043845269829034805
453.0,-43.92237091064453,9.590662956237793,0.8175229430198669,23.607986450195312,5.91978645324707,0.862686038017273,-2.3901307582855225,-0.6749858856201172,-0.001010945183224976
454.0,-43.92241668701172,10.706320762634277,0.8178139925003052,23.199735641479492,5.876173973083496,0.8210168480873108,-2.6183831691741943,-0.6609318256378174,0.013055465184152126
455.0,-43.92245864868164,11.862717628479004,0.8181490302085876,22.72770881652832,5.825474739074707,0.790825605392456,-2.9162254333496094,-0.6541298031806946,-0.02648589015007019
456.0,-43.922515869140625,13.061347961425781,0.8185300827026367,22.253190994262695,5.827483654022217,0.8781833648681641,-3.1828863620758057,-0.6515355110168457,-0.02118220180273056
457.0,-43.92257308959961,14.303749084472656,0.8189603090286255,21.63528060913086,5.760886192321777,0.7606845498085022,-3.3888278007507324,-0.6166670322418213,-0.052662141621112823
458.0,-43.92263412475586,15.591521263122559,0.8194438219070435,20.97386360168457,5.677357196807861,0.7174280881881714,-3.6183435916900635,-0.5419130921363831,-0.05567323416471481
459.0,-43.92270278930664,16.926321029663086,0.819982647895813,20.271196365356445,5.634204864501953,0.6910041570663452,-3.877239227294922,-0.5108926296234131,-0.08167720586061478
460.0,-43.922786712646484,18.30986785888672,0.8205777406692505,19.520551681518555,5.5812578201293945,0.6960410475730896,-4.090651988983154,-0.48321348428726196,-0.11783750355243683
461.0,-43.92286682128906,19.743942260742188,0.8212342858314514,18.664079666137695,5.443206787109375,0.6398213505744934,-4.288772106170654,-0.4374382793903351,-0.02777576632797718
462.0,-43.92296600341797,21.23038673400879,0.8219524621963501,17.828535079956055,5.470027446746826,0.6728063225746155,-4.43541145324707,-0.4373522400856018,-0.029338378459215164
463.0,-43.92306137084961,22.771120071411133,0.8227295279502869,16.841859817504883,5.337138652801514,0.6243122220039368,-4.546107769012451,-0.39506790041923523,-0.03261292353272438
464.0,-43.923160552978516,24.36811637878418,0.8235641121864319,15.779267311096191,5.167018890380859,0.5361362099647522,-4.633070468902588,-0.34453558921813965,-0.059618376195430756
465.0,-43.92327117919922,26.0234375,0.8244551420211792,14.698972702026367,5.01329231262207,0.48760002851486206,-4.677280902862549,-0.3779735565185547,-0.04509803652763367
466.0,-43.923377990722656,27.73921012878418,0.8253985643386841,13.632599830627441,4.960697174072266,0.4834231734275818,-4.6639628410339355,-0.3611154854297638,-0.02909928746521473
467.0,-43.92349624633789,29.517642974853516,0.8263840079307556,12.474228858947754,4.788486957550049,0.38881757855415344,-4.547069072723389,-0.2917141020298004,-0.08769076317548752
468.0,-43.92361831665039,31.361026763916016,0.8273991942405701,11.344277381896973,4.635736465454102,0.48331406712532043,-4.45675802230835,-0.24917861819267273,-0.03528891131281853
469.0,-43.92374038696289,33.271732330322266,0.828429639339447,10.04539966583252,4.371857166290283,0.2984364926815033,-4.289581775665283,-0.17158034443855286,-0.05871019512414932
470.0,-43.923866271972656,35.25221633911133,0.829452633857727,8.83202838897705,4.2484002113342285,0.30552947521209717,-4.077085494995117,-0.10778050124645233,-0.031756769865751266
471.0,-43.92399597167969,37.30502700805664,0.8304381966590881,7.569306373596191,4.078731536865234,0.2279839664697647,-3.780775308609009,-0.09349068999290466,-0.05103355273604393
472.0,-43.92412567138672,39.432804107666016,0.8313521146774292,6.414078712463379,4.076648712158203,0.23567794263362885,-3.3911476135253906,-0.07353638857603073,0.06273467093706131
473.0,-43.92424011230469,41.638301849365234,0.8321446776390076,5.208072185516357,4.00030517578125,0.023245230317115784,-2.8656601905822754,-0.053518831729888916,-0.06826021522283554
474.0,-43.92435073852539,43.924346923828125,0.8327628374099731,4.093051910400391,3.9899868965148926,0.16135968267917633,-2.30534291267395,-0.032866064459085464,0.026461537927389145
475.0,-43.924442291259766,46.293880462646484,0.8331488966941833,2.831843852996826,3.9554343223571777,-0.049586258828639984,-1.729166865348816,0.01662076823413372,-0.13435398042201996
476.0,-43.92455291748047,48.74994659423828,0.8333043456077576,1.6612950563430786,3.3968143463134766,0.15317843854427338,-1.3470152616500854,0.026544686406850815,-0.09041439741849899
653.0,-41.635623931884766,5.507404327392578,0.8041062951087952,21.34950065612793,3.4019885063171387,-0.6042754650115967,-1.727789044380188,-0.18037496507167816,-0.02114841155707836
654.0,-41.63565444946289,6.473938465118408,0.8043708801269531,21.08671760559082,3.3440439701080322,-0.7755917906761169,-2.0349810123443604,-0.22284674644470215,0.06670475006103516
655.0,-41.635684967041016,7.475769519805908,0.8046897649765015,20.90209197998047,3.3724098205566406,-0.7359424233436584,-2.3097994327545166,-0.18863199651241302,0.030124690383672714
656.0,-41.63572311401367,8.514185905456543,0.8050657510757446,20.699167251586914,3.4674317836761475,-0.6641376614570618,-2.6012914180755615,-0.09639452397823334,-0.08690214157104492
657.0,-41.63576889038086,9.590521812438965,0.8055052161216736,20.298784255981445,3.350847005844116,-0.8041104674339294,-2.89485502243042,-0.0788569450378418,-0.018984632566571236
658.0,-41.63581848144531,10.70616340637207,0.8060149550437927,20.04475212097168,3.5451180934906006,-0.6598206162452698,-3.1735901832580566,-0.1189468577504158,0.054805390536785126
659.0,-41.63587951660156,11.862549781799316,0.8065995573997498,19.575288772583008,3.4438726902008057,-0.7519828081130981,-3.498600482940674,-0.1354088932275772,-0.03602844849228859
660.0,-41.63594436645508,13.061165809631348,0.8072653412818909,19.1400203704834,3.488557815551758,-0.764432430267334,-3.7914347648620605,-0.17434903979301453,-0.02316861040890217
661.0,-41.636016845703125,14.303552627563477,0.8080182671546936,18.668073654174805,3.562736988067627,-0.7405853867530823,-4.016969203948975,-0.12480996549129486,-0.014678320847451687
662.0,-41.636104583740234,15.591310501098633,0.8088630437850952,18.182573318481445,3.686492443084717,-0.617936909198761,-4.269794464111328,-0.08412657678127289,-0.0003680963418446481
663.0,-41.63618850708008,16.92609977722168,0.809804379940033,17.589078903198242,3.743482828140259,-0.5867944359779358,-4.533308506011963,-0.14533738791942596,-0.010378108359873295
664.0,-41.636287689208984,18.30963706970215,0.8108449578285217,16.960969924926758,3.8412652015686035,-0.5452098846435547,-4.746303558349609,-0.10218502581119537,-0.0741032138466835
665.0,-41.63639831542969,19.74370002746582,0.8119908571243286,16.197656631469727,3.837463617324829,-0.6470898985862732,-4.920225143432617,-0.030266012996435165,0.015881003811955452
666.0,-41.63650894165039,21.230138778686523,0.8132438063621521,15.510740280151367,4.005812168121338,-0.5027532577514648,-5.051098346710205,-0.038473282009363174,-0.013308829627931118
667.0,-41.63663864135742,22.770862579345703,0.8145990967750549,14.618593215942383,3.9554708003997803,-0.5543484687805176,-5.167260646820068,-0.05314498394727707,-0.0399862565100193
668.0,-41.636775970458984,24.367856979370117,0.8160552382469177,13.780206680297852,4.061221599578857,-0.4312725067138672,-5.267776012420654,-0.06032835692167282,-0.04690355062484741
669.0,-41.63691329956055,26.023176193237305,0.8176084756851196,12.833391189575195,4.06542444229126,-0.44082263112068176,-5.329128265380859,-0.033827658742666245,-0.05569279193878174
670.0,-41.63705062866211,27.738950729370117,0.8192509412765503,11.945501327514648,4.176514148712158,-0.3905830681324005,-5.310413360595703,0.015053347684442997,-0.027582909911870956
671.0,-41.637203216552734,29.51738166809082,0.8209661841392517,11.027395248413086,4.311954498291016,-0.3584008514881134,-5.243136882781982,0.044048819690942764,-0.045733243227005005
672.0,-41.63735580444336,31.360776901245117,0.8227337598800659,10.033130645751953,4.335931777954102,-0.28154829144477844,-5.202480316162109,0.06482813507318497,-0.001746825990267098
673.0,-41.637516021728516,33.271488189697266,0.8245267868041992,9.001334190368652,4.379566192626953,-0.3219408094882965,-5.048654079437256,0.07453357428312302,-0.051049940288066864
674.0,-41.63767623901367,35.25198745727539,0.8263087868690491,8.088418006896973,4.500895977020264,-0.18342342972755432,-4.802184581756592,0.059088561683893204,0.0030501706060022116
675.0,-41.63784408569336,37.30482482910156,0.8280273675918579,7.007046222686768,4.474471569061279,-0.28851640224456787,-4.466685771942139,0.07138489931821823,-0.07834572345018387
676.0,-41.638004302978516,39.43263244628906,0.8296247124671936,6.03580379486084,4.727566242218018,-0.07462656497955322,-3.995039224624634,0.06957942247390747,0.03416148200631142
677.0,-41.63815689086914,41.63815689086914,0.8310251832008362,4.9621500968933105,4.939326763153076,-0.2037210762500763,-3.3796255588531494,0.053814299404621124,-0.06864399462938309
678.0,-41.6382942199707,43.92424011230469,0.832145631313324,4.029602527618408,5.155632019042969,0.04091370478272438,-2.833984136581421,0.06749061495065689,0.05340573564171791
679.0,-41.638431549072266,46.293819427490234,0.8328962922096252,2.880298376083374,5.1700215339660645,-0.2164829820394516,-2.211016893386841,0.09341630339622498,-0.10782773047685623
680.0,-41.63856506347656,48.74993133544922,0.8332496881484985,1.9652291536331177,4.685727596282959,0.16246198117733002,-1.6865214109420776,0.05849069356918335,-0.0041126287542283535
857.0,-39.429630279541016,5.507313251495361,0.7895479202270508,18.70380973815918,1.9538803100585938,0.6823515892028809,-1.955641746520996,-0.6726914644241333,-0.08430762588977814
858.0,-39.42966079711914,6.473834037780762,0.7899404168128967,18.44804573059082,1.836423635482788,0.666509211063385,-2.3257522583007812,-0.6981049180030823,-0.012620287016034126
859.0,-39.42970657348633,7.475647926330566,0.7904125452041626,18.215242385864258,1.9338980913162231,0.6473021507263184,-2.6279704570770264,-0.6863132119178772,0.003096482716500759
860.0,-39.42974853515625,8.514049530029297,0.7909708023071289,17.975202560424805,2.0189273357391357,0.6739906668663025,-2.960430383682251,-0.6053063273429871,0.016758741810917854
861.0,-39.429805755615234,9.590370178222656,0.7916236519813538,17.6665096282959,2.022926092147827,0.6240556240081787,-3.269153118133545,-0.5884177684783936,0.02957247570157051
862.0,-39.42985916137695,10.706000328063965,0.7923799753189087,17.440109252929688,2.253877639770508,0.6982197761535645,-3.597165822982788,-0.5927722454071045,0.049021776765584946
863.0,-39.429927825927734,11.862369537353516,0.793247640132904,17.023048400878906,2.220608711242676,0.628023087978363,-3.967517375946045,-0.5640702843666077,0.01581193320453167
864.0,-39.43000793457031,13.060972213745117,0.7942365407943726,16.684465408325195,2.4132025241851807,0.7402952909469604,-4.30394172668457,-0.5752297043800354,0.027630764991044998
865.0,-39.43010330200195,14.3033447265625,0.7953547239303589,16.187875747680664,2.487095832824707,0.6485404372215271,-4.57644510269165,-0.526145875453949,-0.00972962286323309
866.0,-39.43019485473633,15.591093063354492,0.7966086864471436,15.705686569213867,2.6516106128692627,0.5673582553863525,-4.8490777015686035,-0.5268621444702148,-0.011871234513819218
867.0,-39.430301666259766,16.925867080688477,0.7980066537857056,15.202003479003906,2.7897775173187256,0.5104751586914062,-5.139188766479492,-0.6008667349815369,-0.03513758257031441
868.0,-39.430416107177734,18.30939292907715,0.7995544672012329,14.681009292602539,2.9771652221679688,0.5338830947875977,-5.400523662567139,-0.514271080493927,-0.04892069101333618
869.0,-39.430545806884766,19.743452072143555,0.8012582063674927,14.054948806762695,3.1786692142486572,0.40878790616989136,-5.619307518005371,-0.4285371005535126,0.06489092856645584
870.0,-39.43069076538086,21.229881286621094,0.8031205534934998,13.468901634216309,3.3737924098968506,0.47725290060043335,-5.785346508026123,-0.4049103260040283,0.08412022143602371
871.0,-39.43082809448242,22.770599365234375,0.8051372170448303,12.809362411499023,3.5347139835357666,0.4097439646720886,-5.903109550476074,-0.3616304099559784,0.03323625028133392
872.0,-39.43098449707031,24.367586135864258,0.8073038458824158,12.15175724029541,3.7058160305023193,0.4982519745826721,-5.983480453491211,-0.37211495637893677,0.005761712323874235
873.0,-39.431148529052734,26.022905349731445,0.8096143007278442,11.402268409729004,3.915529489517212,0.41618111729621887,-6.011445999145508,-0.32716381549835205,-0.004653625655919313
874.0,-39.43132019042969,27.738679885864258,0.8120547533035278,10.631754875183105,4.090362071990967,0.3701295256614685,-5.938938140869141,-0.2519727051258087,0.008440339006483555
875.0,-39.43149185180664,29.517120361328125,0.8146039247512817,9.789616584777832,4.293315410614014,0.23712322115898132,-5.8680524826049805,-0.22518204152584076,-0.019931109622120857
876.0,-39.43167495727539,31.360519409179688,0.8172312378883362,9.019390106201172,4.563869476318359,0.31914791464805603,-5.778350830078125,-0.1782068908214569,0.010705705732107162
877.0,-39.43186569213867,33.271244049072266,0.819895327091217,8.143233299255371,4.793186664581299,0.17429818212985992,-5.609005451202393,-0.16604487597942352,-0.012897761538624763
878.0,-39.43205642700195,35.251766204833984,0.8225465416908264,7.381176471710205,5.121082782745361,0.28146323561668396,-5.314138889312744,-0.17116548120975494,0.07632922381162643
879.0,-39.432247161865234,37.30461502075195,0.8251118659973145,6.504851818084717,5.290523052215576,0.05325547605752945,-4.9725422859191895,-0.10830055177211761,-0.07337507605552673
880.0,-39.432437896728516,39.43244552612305,0.8275074362754822,5.772895336151123,5.672217845916748,0.2523798942565918,-4.513595104217529,-0.06875544041395187,0.030337553471326828
881.0,-39.4326286315918,41.638004302978516,0.8296264410018921,4.8029046058654785,6.013737201690674,-0.04105279967188835,-3.8807661533355713,-0.0354217104613781,-0.058348171412944794
882.0,-39.432796478271484,43.92412567138672,0.8313536047935486,4.107252597808838,6.41367244720459,0.2414255142211914,-3.323862075805664,-0.0016408684896305203,0.11129922419786453
883.0,-39.43296813964844,46.29374694824219,0.8325625658035278,3.1555368900299072,6.553223609924316,-0.14213694632053375,-2.6572420597076416,0.07280010730028152,-0.09268711507320404
884.0,-39.43313217163086,48.74990463256836,0.8331760764122009,2.433279037475586,6.2311015129089355,0.22798369824886322,-1.9594964981079102,0.07800915092229843,0.05819987878203392
1061.0,-37.30143737792969,5.50722074508667,0.7738245725631714,15.865296363830566,-0.4894639849662781,-0.40045541524887085,-2.1820640563964844,-0.20599626004695892,-0.0026770944241434336
1062.0,-37.30147933959961,6.473724365234375,0.7743493318557739,15.609801292419434,-0.6552817821502686,-0.6118419766426086,-2.5596702098846436,-0.2037735879421234,-0.04777863621711731
1063.0,-37.301517486572266,7.475523948669434,0.7749804854393005,15.549032211303711,-0.3901849389076233,-0.6091542840003967,-2.9173779487609863,-0.20896779000759125,-0.038100466132164
1064.0,-37.301570892333984,8.513909339904785,0.7757287621498108,15.414177894592285,-0.23104526102542877,-0.5074304938316345,-3.2747802734375,-0.1877269446849823,0.08044091612100601
1065.0,-37.301631927490234,9.590214729309082,0.7766051888465881,15.117538452148438,-0.16932342946529388,-0.6112958788871765,-3.6340179443359375,-0.16711090505123138,0.04212203249335289
1066.0,-37.301700592041016,10.705825805664062,0.7776198983192444,14.808080673217773,-0.021539218723773956,-0.5503273606300354,-4.0341644287109375,-0.17044316232204437,0.013120732270181179
1067.0,-37.30177688598633,11.862181663513184,0.7787858247756958,14.429769515991211,0.11461000144481659,-0.5820408463478088,-4.419555187225342,-0.16829457879066467,0.10980987548828125
1068.0,-37.301876068115234,13.060769081115723,0.7801156640052795,14.137267112731934,0.3773467242717743,-0.4929230213165283,-4.779796123504639,-0.1630420684814453,0.1001480296254158
1069.0,-37.30196762084961,14.303129196166992,0.7816199660301208,13.74771785736084,0.5883476734161377,-0.5526372790336609,-5.068934917449951,-0.17948377132415771,-0.00919410865753889
1070.0,-37.30207443237305,15.590864181518555,0.7833090424537659,13.42423152923584,0.9721932411193848,-0.45534488558769226,-5.331202983856201,-0.13813959062099457,-0.02356147952377796
1071.0,-37.30219650268555,16.925628662109375,0.7851930260658264,13.007576942443848,1.2753915786743164,-0.43044233322143555,-5.627809524536133,-0.08795969933271408,-0.04941103234887123
1072.0,-37.30233383178711,18.309144973754883,0.7872809171676636,12.500618934631348,1.4884436130523682,-0.4510977566242218,-5.88930082321167,-0.11850602179765701,-0.03599672019481659
1073.0,-37.30247497558594,19.743192672729492,0.7895793914794922,12.061888694763184,1.914953351020813,-0.37189990282058716,-6.102756977081299,-0.11060631275177002,0.014109239913523197
1074.0,-37.30262756347656,21.2296142578125,0.7920908331871033,11.513492584228516,2.174046516418457,-0.36390069127082825,-6.26008415222168,-0.04609354957938194,0.07554180175065994
1075.0,-37.302791595458984,22.770326614379883,0.7948133945465088,10.939764976501465,2.5402724742889404,-0.47689273953437805,-6.38307523727417,-0.027861012145876884,0.07866688817739487
1076.0,-37.30296325683594,24.36731719970703,0.7977410554885864,10.38205623626709,2.800340175628662,-0.38007718324661255,-6.4812235832214355,-0.035481806844472885,0.03674300014972687
1077.0,-37.30314636230469,26.02263069152832,0.8008637428283691,9.788599967956543,3.209947347640991,-0.4557173550128937,-6.500194072723389,-0.006467544473707676,0.030532393604516983
1078.0,-37.303340911865234,27.738407135009766,0.8041620254516602,9.23456859588623,3.6122019290924072,-0.2510071098804474,-6.430293083190918,-0.022666824981570244,0.014883636496961117
1079.0,-37.303531646728516,29.516849517822266,0.8076075911521912,8.526823997497559,3.9694042205810547,-0.3281621038913727,-6.350554943084717,-0.054004281759262085,-0.032651182264089584
1080.0,-37.303741455078125,31.360261917114258,0.8111600875854492,7.973659515380859,4.505713939666748,-0.11177539080381393,-6.217716693878174,-0.024989349767565727,0.019975760951638222
1081.0,-37.303951263427734,33.270999908447266,0.8147644400596619,7.2270894050598145,4.840366840362549,-0.28048816323280334,-6.059681415557861,-0.03901759162545204,0.004358303267508745
1082.0,-37.304168701171875,35.251529693603516,0.8183556795120239,6.623783588409424,5.38460111618042,-0.034459274262189865,-5.80003023147583,0.0031380089931190014,0.09325415641069412
1083.0,-37.304386138916016,37.30440902709961,0.8218411207199097,5.860294342041016,5.850315093994141,-0.23859535157680511,-5.450047016143799,0.1092773824930191,-0.05606001988053322
1084.0,-37.30460739135742,39.43226623535156,0.8251118659973145,5.360015392303467,6.3814616203308105,0.024489954113960266,-4.996652603149414,0.08954107016324997,0.08591306954622269
1085.0,-37.304813385009766,41.63785171508789,0.8280301094055176,4.635961532592773,6.912682056427002,-0.2675444781780243,-4.344757556915283,0.07197042554616928,-0.058515988290309906
1086.0,-37.30501937866211,43.924007415771484,0.8304415941238403,4.142690658569336,7.531497478485107,0.14111477136611938,-3.7384493350982666,0.061017267405986786,0.1097213476896286
1087.0,-37.30521011352539,46.29366683959961,0.8321751952171326,3.319864511489868,7.837283611297607,-0.3562624752521515,-3.028449773788452,0.11557036638259888,-0.09395008534193039
1088.0,-37.305389404296875,48.749874114990234,0.8330902457237244,2.9476873874664307,7.945292949676514,0.23883679509162903,-2.1809804439544678,0.10863088071346283,0.1098933070898056
1265.0,-35.2482795715332,5.507125377655029,0.7575795650482178,13.541383743286133,-2.070497751235962,0.43358302116394043,-2.397132635116577,-0.6386380195617676,0.07105482369661331
1266.0,-35.248321533203125,6.473613739013672,0.7582331299781799,13.386091232299805,-2.0622634887695312,0.44691723585128784,-2.733226776123047,-0.6082980036735535,0.04865427315235138
1267.0,-35.24837112426758,7.475398063659668,0.759020209312439,13.330703735351562,-1.758879542350769,0.5856637954711914,-3.129356622695923,-0.5571181774139404,0.006197449751198292
1268.0,-35.24842834472656,8.513766288757324,0.7599549889564514,13.08699893951416,-1.7092067003250122,0.5730400681495667,-3.5375401973724365,-0.5373597741127014,0.01692810095846653
1269.0,-35.24849319458008,9.590056419372559,0.7610511779785156,12.815603256225586,-1.5126484632492065,0.4414656460285187,-3.9244160652160645,-0.5199611783027649,0.008379924111068249
1270.0,-35.24856948852539,10.70565414428711,0.762321949005127,12.654244422912598,-1.3167093992233276,0.6020190715789795,-4.325266361236572,-0.5574854016304016,0.06062740460038185
1271.0,-35.2486572265625,11.861992835998535,0.7637839317321777,12.382673263549805,-1.0470513105392456,0.4543168246746063,-4.713435649871826,-0.5649712681770325,0.12669552862644196
1272.0,-35.24875259399414,13.060564041137695,0.7654538750648499,12.083070755004883,-0.8122620582580566,0.4454808831214905,-5.094101428985596,-0.4731263518333435,0.09514803439378738
1273.0,-35.24886703491211,14.302910804748535,0.7673458456993103,11.763070106506348,-0.3990640640258789,0.4112107455730438,-5.43546724319458,-0.47831133008003235,0.026201454922556877
1274.0,-35.24898910522461,15.590635299682617,0.769473671913147,11.352601051330566,-0.0678788349032402,0.3759007155895233,-5.733616352081299,-0.4533767104148865,0.014020322822034359
1275.0,-35.24911880493164,16.925386428833008,0.7718499898910522,11.063559532165527,0.4642501175403595,0.4913441836833954,-6.056728839874268,-0.3985600173473358,0.03060491569340229
1276.0,-35.249263763427734,18.308897018432617,0.7744866013526917,10.66770076751709,0.8197612166404724,0.45113879442214966,-6.343921661376953,-0.4853155314922333,0.07521674782037735
1277.0,-35.249420166015625,19.74293327331543,0.7773923277854919,10.279167175292969,1.2479333877563477,0.3874388337135315,-6.554897785186768,-0.447828084230423,0.036536023020744324
1278.0,-35.24958801269531,21.22934913635254,0.7805684804916382,9.89596939086914,1.7219078540802002,0.45239847898483276,-6.729147911071777,-0.3407320976257324,0.03906272351741791
1279.0,-35.2497673034668,22.770061492919922,0.7840143442153931,9.370741844177246,2.1662380695343018,0.32022860646247864,-6.836879253387451,-0.34630653262138367,0.10053108632564545
1280.0,-35.24995422363281,24.367046356201172,0.7877233028411865,8.93349552154541,2.624112367630005,0.45657438039779663,-6.929322242736816,-0.3070385158061981,0.051844120025634766
1281.0,-35.25015640258789,26.02236557006836,0.7916813492774963,8.417603492736816,3.1225833892822266,0.23540399968624115,-6.927855491638184,-0.2636830806732178,0.06874457001686096
1282.0,-35.250362396240234,27.738142013549805,0.7958655953407288,7.982525825500488,3.6021311283111572,0.3086649477481842,-6.87532377243042,-0.28313735127449036,0.08153051137924194
1283.0,-35.250579833984375,29.516590118408203,0.8002399802207947,7.46976375579834,4.1355671882629395,0.15170566737651825,-6.772305011749268,-0.2382284551858902,0.01458680722862482
1284.0,-35.25080490112305,31.360002517700195,0.8047529458999634,7.0905070304870605,4.807363510131836,0.31510233879089355,-6.6255645751953125,-0.13746459782123566,0.06778310984373093
1285.0,-35.251033782958984,33.270755767822266,0.8093358278274536,6.473961353302002,5.232987880706787,0.010460471734404564,-6.41750431060791,-0.11283547431230545,0.026298033073544502
1286.0,-35.25127029418945,35.25129699707031,0.8139081001281738,6.111654281616211,5.890180587768555,0.24627065658569336,-6.133040428161621,-0.11702787131071091,0.10304678231477737
1287.0,-35.25151062011719,37.304195404052734,0.8183561563491821,5.504364013671875,6.5188517570495605,-0.08674255013465881,-5.769443035125732,-0.08386154472827911,-0.04597277194261551
1288.0,-35.25175094604492,39.432071685791016,0.8225468993186951,5.17726469039917,7.278347492218018,0.26516520977020264,-5.349667072296143,-0.06870216131210327,0.15872903168201447
1289.0,-35.25197982788086,41.637691497802734,0.8263116478919983,4.596633434295654,7.970550537109375,-0.14222484827041626,-4.730128765106201,-0.003486047964543104,-0.03001176007091999
1290.0,-35.252201080322266,43.923885345458984,0.8294574022293091,4.336019039154053,8.784835815429688,0.337189257144928,-4.0953145027160645,0.035835087299346924,0.14146803319454193
1291.0,-35.25241470336914,46.293582916259766,0.8317579030990601,3.718454360961914,9.347098350524902,-0.24930986762046814,-3.3084561824798584,0.08210858702659607,-0.12169791758060455
1292.0,-35.25261306762695,48.74984359741211,0.8329982161521912,3.636009454727173,9.89106273651123,0.44335219264030457,-2.3564138412475586,0.07967909425497055,0.11404591053724289
1469.0,-33.267513275146484,5.507030010223389,0.7413146495819092,10.95411491394043,-4.216529369354248,-0.24057208001613617,-2.473320245742798,-0.18686652183532715,0.05192726477980614
1470.0,-33.26755905151367,6.473503589630127,0.7420840263366699,10.82542610168457,-4.168976306915283,-0.36374711990356445,-2.866891860961914,-0.15727607905864716,-0.03303016722202301
1471.0,-33.267608642578125,7.475273609161377,0.7430142760276794,10.71866512298584,-3.9598469734191895,-0.4463636577129364,-3.309621572494507,-0.19657456874847412,0.037630196660757065
1472.0,-33.267669677734375,8.513627052307129,0.7441221475601196,10.594940185546875,-3.9275362491607666,-0.42200905084609985,-3.710050106048584,-0.25756534934043884,0.0032087224535644054
1473.0,-33.26774597167969,9.5899019241333,0.7454227209091187,10.57209300994873,-3.500276803970337,-0.4594554305076599,-4.141273021697998,-0.20342053472995758,-0.0484427772462368
1474.0,-33.267826080322266,10.705483436584473,0.7469344735145569,10.39388370513916,-3.269422769546509,-0.3771364688873291,-4.600932598114014,-0.17783071100711823,0.07003441452980042
1475.0,-33.26791763305664,11.861807823181152,0.748677670955658,10.133620262145996,-2.8968050479888916,-0.40227559208869934,-5.028139591217041,-0.19711409509181976,0.09987294673919678
1476.0,-33.26803207397461,13.060364723205566,0.750672459602356,9.831852912902832,-2.6575124263763428,-0.38322713971138,-5.419715404510498,-0.1709909588098526,0.09372854977846146
1477.0,-33.26814651489258,14.30269718170166,0.7529385089874268,9.631328582763672,-2.0472772121429443,-0.3584824800491333,-5.805886268615723,-0.1828920990228653,0.07713502645492554
1478.0,-33.268280029296875,15.59040641784668,0.7554917931556702,9.280905723571777,-1.6455278396606445,-0.40834692120552063,-6.123661994934082,-0.18182061612606049,0.04486637935042381
1479.0,-33.268428802490234,16.925146102905273,0.7583492994308472,8.921966552734375,-1.1372361183166504,-0.5160556435585022,-6.425449848175049,-0.139982208609581,0.09843859076499939
1480.0,-33.26857376098633,18.30864143371582,0.7615258693695068,8.710018157958984,-0.46430641412734985,-0.31459546089172363,-6.747920989990234,-0.10944938659667969,0.1479005068540573
1481.0,-33.268741607666016,19.742673873901367,0.765031099319458,8.305558204650879,0.017668770626187325,-0.42029622197151184,-6.969433307647705,-0.09773415327072144,0.0671842098236084
1482.0,-33.2689208984375,21.229082107543945,0.7688683867454529,8.030562400817871,0.687597393989563,-0.3267534077167511,-7.1670002937316895,-0.16780370473861694,0.08829161524772644
1483.0,-33.26911544799805,22.769790649414062,0.7730369567871094,7.664302825927734,1.2789802551269531,-0.415632426738739,-7.283287525177002,-0.22906841337680817,0.1208457499742508
1484.0,-33.269317626953125,24.36676788330078,0.7775283455848694,7.382237434387207,1.9288768768310547,-0.253747820854187,-7.356867790222168,-0.13820765912532806,0.07297566533088684
1485.0,-33.26953125,26.022083282470703,0.7823242545127869,7.02260160446167,2.663637399673462,-0.3080008924007416,-7.344351768493652,-0.07252434641122818,0.07124016433954239
1486.0,-33.26974868774414,27.737869262695312,0.7873966693878174,6.647089958190918,3.2150402069091797,-0.18327806890010834,-7.284893035888672,-0.06524163484573364,0.13636641204357147
1487.0,-33.26998519897461,29.516324996948242,0.7927051186561584,6.204609394073486,3.922203540802002,-0.38164544105529785,-7.191239356994629,-0.04332375153899193,0.05933067575097084
1488.0,-33.27022171020508,31.359745025634766,0.7981892228126526,6.015581130981445,4.80087423324585,-0.08513189852237701,-7.018478870391846,-0.06264537572860718,0.08972027897834778
1489.0,-33.27046585083008,33.2705078125,0.8037644028663635,5.629834175109863,5.446850776672363,-0.31461143493652344,-6.797175407409668,-0.025357183068990707,0.0025844722986221313
1490.0,-33.27071762084961,35.251068115234375,0.8093328475952148,5.481832504272461,6.289992809295654,0.07307633012533188,-6.515841960906982,0.017367349937558174,0.16043762862682343
1491.0,-33.27096939086914,37.30398178100586,0.8147627115249634,5.039754867553711,7.033995628356934,-0.2575441300868988,-6.099940776824951,0.005603413563221693,0.0033702347427606583
1492.0,-33.2712287902832,39.431888580322266,0.819895327091217,4.9137187004089355,8.013936042785645,0.21950076520442963,-5.613990306854248,0.03090277686715126,0.1734706312417984
1493.0,-33.271480560302734,41.63753128051758,0.8245296478271484,4.420139312744141,8.882582664489746,-0.3355439305305481,-4.955799579620361,0.07593762874603271,-0.03648946061730385
1494.0,-33.271724700927734,43.92375183105469,0.8284339308738708,4.441039562225342,9.94357967376709,0.3505689799785614,-4.294175624847412,0.049729082733392715,0.22441557049751282
1495.0,-33.27194595336914,46.29350280761719,0.8313237428665161,3.998304843902588,10.747379302978516,-0.3893832862377167,-3.4399032592773438,0.11010860651731491,-0.10765530169010162
1496.0,-33.27215576171875,48.749813079833984,0.8329027891159058,4.1783766746521,11.691496849060059,0.38164666295051575,-2.4749834537506104,0.1072419285774231,0.1594775766134262
1673.0,-31.35658073425293,5.506937026977539,0.7254554033279419,8.80551528930664,-5.930427551269531,0.1721501499414444,-2.5909976959228516,-0.5083178877830505,0.02130134217441082
1674.0,-31.356626510620117,6.473396301269531,0.7263228893280029,8.755802154541016,-5.747378826141357,0.23208008706569672,-3.02370548248291,-0.4917202293872833,-0.0591193363070488
1675.0,-31.356678009033203,7.475150108337402,0.7273751497268677,8.696133613586426,-5.473530292510986,0.25181686878204346,-3.5170576572418213,-0.4796763062477112,0.020366204902529716
1676.0,-31.356748580932617,8.513487815856934,0.7286319732666016,8.582602500915527,-5.272611618041992,0.39800164103507996,-3.9473326206207275,-0.4974534213542938,0.03528246283531189
1677.0,-31.35682487487793,9.58974552154541,0.7301119565963745,8.340699195861816,-5.02114725112915,0.3311026394367218,-4.4045562744140625,-0.4775710701942444,-0.016940772533416748
1678.0,-31.356914520263672,10.705312728881836,0.7318386435508728,8.215279579162598,-4.637121677398682,0.40724584460258484,-4.912612438201904,-0.44251134991645813,0.05785200744867325
1679.0,-31.357011795043945,11.861621856689453,0.7338361740112305,8.080178260803223,-4.208480358123779,0.41154342889785767,-5.38944149017334,-0.4553014934062958,0.02894548699259758
1680.0,-31.35713005065918,13.060163497924805,0.7361288666725159,7.828770160675049,-3.862783193588257,0.3485829532146454,-5.8143534660339355,-0.4356897175312042,0.023581547662615776
1681.0,-31.357255935668945,14.302481651306152,0.7387409806251526,7.631457328796387,-3.193329095840454,0.2973525822162628,-6.212479114532471,-0.38983774185180664,0.08471666276454926
1682.0,-31.35739517211914,15.590177536010742,0.7416935563087463,7.479401588439941,-2.5326597690582275,0.4635474979877472,-6.547893047332764,-0.4232315719127655,0.08160895854234695
1683.0,-31.357547760009766,16.92490577697754,0.7450061440467834,7.171611309051514,-1.9668700695037842,0.30447378754615784,-6.828849792480469,-0.40774959325790405,0.09019862115383148
1684.0,-31.35771369934082,18.308393478393555,0.7486976981163025,7.023341655731201,-1.1941043138504028,0.44123026728630066,-7.137978553771973,-0.30248114466667175,0.10467301309108734
1685.0,-31.357892990112305,19.742414474487305,0.7527790069580078,6.732956409454346,-0.5007686018943787,0.300392746925354,-7.355626106262207,-0.28064629435539246,0.011784062720835209
1686.0,-31.35807991027832,21.228818893432617,0.7572556734085083,6.559081554412842,0.27302050590515137,0.3838190734386444,-7.497474193572998,-0.32772210240364075,0.11940962821245193
1687.0,-31.358280181884766,22.76951789855957,0.7621262073516846,6.266039848327637,0.9896968603134155,0.20399877429008484,-7.63393497467041,-0.3363242447376251,0.12077397108078003
1688.0,-31.35849380493164,24.366498947143555,0.7673821449279785,6.051761150360107,1.7418899536132812,0.2750169336795807,-7.676852703094482,-0.27749136090278625,0.15008209645748138
1689.0,-31.358720779418945,26.02181625366211,0.7730020880699158,5.790935039520264,2.6018755435943604,0.14916397631168365,-7.697189807891846,-0.24612721800804138,0.07404902577400208
1690.0,-31.358949661254883,27.737606048583984,0.7789497971534729,5.59560489654541,3.3165669441223145,0.35106533765792847,-7.5821919441223145,-0.22976623475551605,0.12877170741558075
1691.0,-31.35919189453125,29.516063690185547,0.7851771712303162,5.256429195404053,4.114986896514893,0.09288568049669266,-7.512682914733887,-0.2302473783493042,0.04085000976920128
1692.0,-31.359439849853516,31.359493255615234,0.7916187644004822,5.112514019012451,5.128912448883057,0.38362568616867065,-7.315520286560059,-0.23587679862976074,0.1594543308019638
1693.0,-31.359695434570312,33.270267486572266,0.7981789112091064,4.802767276763916,5.9309539794921875,0.02287430316209793,-7.040805816650391,-0.1256953626871109,0.030331451445817947
1694.0,-31.359956741333008,35.250850677490234,0.8047399520874023,4.807308673858643,6.854427814483643,0.3167021572589874,-6.739509105682373,-0.06047665700316429,0.21912303566932678
1695.0,-31.360227584838867,37.303775787353516,0.8111496567726135,4.488583087921143,7.680253028869629,-0.19814181327819824,-6.310508728027344,-0.07664620131254196,0.029246658086776733
1696.0,-31.36050033569336,39.431705474853516,0.8172259330749512,4.626776218414307,8.82522964477539,0.36302515864372253,-5.831004619598389,-0.04066944494843483,0.2129986435174942
1697.0,-31.360761642456055,41.63737487792969,0.8227342367172241,4.318980693817139,9.881855010986328,-0.32334670424461365,-5.150043964385986,0.00037007167702540755,-0.028127223253250122
1698.0,-31.361011505126953,43.923641204833984,0.8274011611938477,4.54735803604126,11.10746955871582,0.39463096857070923,-4.472073078155518,-0.014445452019572258,0.26971885561943054
1699.0,-31.361251831054688,46.29342269897461,0.8308863043785095,4.275806903839111,12.160798072814941,-0.4535684883594513,-3.5487139225006104,0.11043595522642136,-0.05804348737001419
1700.0,-31.361469268798828,48.749786376953125,0.8328070044517517,4.693187713623047,13.427343368530273,0.3732605278491974,-2.570476770401001,0.12942154705524445,0.25025007128715515
1877.0,-29.513004302978516,5.506842613220215,0.7103505730628967,6.594832420349121,-7.809933662414551,-0.10374511033296585,-2.7732133865356445,-0.2009330838918686,-0.013361425139009953
1878.0,-29.513057708740234,6.473285675048828,0.7112917304039001,6.450847148895264,-7.731822490692139,-0.19830213487148285,-3.2189078330993652,-0.24558088183403015,0.02673688530921936
1879.0,-29.513111114501953,7.475022315979004,0.712437093257904,6.341563701629639,-7.543696403503418,-0.27885687351226807,-3.6882894039154053,-0.23099055886268616,0.0347408689558506
1880.0,-29.51318359375,8.513346672058105,0.713809609413147,6.346107006072998,-7.177750110626221,-0.24823902547359467,-4.171039581298828,-0.2008715718984604,0.024914205074310303
1881.0,-29.513261795043945,9.589591026306152,0.7154347896575928,6.2838029861450195,-6.863612174987793,-0.27915826439857483,-4.648120403289795,-0.22363659739494324,0.029914703220129013
1882.0,-29.513362884521484,10.705140113830566,0.7173395752906799,6.208160400390625,-6.407867908477783,-0.25355085730552673,-5.1322102546691895,-0.2069612741470337,0.10981869697570801
1883.0,-29.513471603393555,11.861433982849121,0.7195530533790588,5.97556734085083,-6.083294868469238,-0.39506152272224426,-5.6098408699035645,-0.21798668801784515,0.05581510439515114
1884.0,-29.513593673706055,13.05996036529541,0.7221049070358276,5.8650288581848145,-5.446705341339111,-0.32987216114997864,-6.054375171661377,-0.21684004366397858,0.020899338647723198
1885.0,-29.513729095458984,14.302267074584961,0.7250229120254517,5.731258869171143,-4.701318740844727,-0.31557440757751465,-6.449604034423828,-0.19422519207000732,0.07336046546697617
1886.0,-29.513874053955078,15.589949607849121,0.728334367275238,5.601534843444824,-3.9358677864074707,-0.1845085620880127,-6.799458026885986,-0.25194498896598816,0.08674032241106033
1887.0,-29.5140380859375,16.924667358398438,0.7320627570152283,5.265315532684326,-3.2522127628326416,-0.41918736696243286,-7.088486194610596,-0.23621681332588196,0.0637393593788147
1888.0,-29.514209747314453,18.308143615722656,0.7362300157546997,5.129613399505615,-2.4163694381713867,-0.2659880816936493,-7.344444751739502,-0.16133682429790497,0.10246246308088303
1889.0,-29.514400482177734,19.742156982421875,0.7408502101898193,4.989959239959717,-1.5221251249313354,-0.3767651319503784,-7.563614845275879,-0.16088543832302094,0.04360771179199219
1890.0,-29.514591217041016,21.22855567932129,0.7459311485290527,4.886291980743408,-0.6239657402038574,-0.20110979676246643,-7.737281322479248,-0.15713809430599213,0.13255606591701508
1891.0,-29.51480484008789,22.769254684448242,0.7514705657958984,4.672275066375732,0.2934075891971588,-0.30785825848579407,-7.873835563659668,-0.13497281074523926,0.07654818892478943
1892.0,-29.51502799987793,24.366228103637695,0.7574581503868103,4.647109508514404,1.259104609489441,-0.03924524784088135,-7.895546913146973,-0.1446569561958313,0.1859084516763687
1893.0,-29.515256881713867,26.021547317504883,0.7638706564903259,4.443752288818359,2.1570565700531006,-0.25721028447151184,-7.953842639923096,-0.15557736158370972,0.06285352259874344
1894.0,-29.515501022338867,27.737335205078125,0.7706684470176697,4.371044635772705,3.1368234157562256,-0.06217171996831894,-7.832187175750732,-0.090187668800354,0.149097740650177
1895.0,-29.515748977661133,29.515806198120117,0.7777918577194214,4.145328044891357,4.055303573608398,-0.3343477249145508,-7.713072776794434,-0.0626215711236,0.030833425000309944
1896.0,-29.516008377075195,31.359241485595703,0.7851638793945312,4.148966312408447,5.091257572174072,-0.0031729708425700665,-7.495822429656982,-0.08298056572675705,0.21165263652801514
1897.0,-29.51626968383789,33.2700309753418,0.7926827073097229,3.9588072299957275,6.1373982429504395,-0.30769455432891846,-7.211600303649902,-0.05588311329483986,0.0826544463634491
1898.0,-29.516542434692383,35.2506217956543,0.8002157211303711,4.187427520751953,7.326760292053223,0.15503869950771332,-6.945602893829346,-0.05747772008180618,0.20267179608345032
1899.0,-29.516817092895508,37.30356979370117,0.807587206363678,4.035366535186768,8.288290977478027,-0.42297741770744324,-6.482878684997559,0.00330286449752748,-0.00574872549623251
1900.0,-29.517091751098633,39.431522369384766,0.8145922422409058,4.405139446258545,9.590740203857422,0.2912181317806244,-5.983933448791504,0.052479393780231476,0.3252534568309784
1901.0,-29.517366409301758,41.63722610473633,0.8209633231163025,4.294444561004639,10.838403701782227,-0.3879353702068329,-5.289870738983154,0.05558257922530174,-0.001053068321198225
1902.0,-29.51762580871582,43.923519134521484,0.8263837099075317,4.790404796600342,12.302117347717285,0.4459328353404999,-4.6063761711120605,0.09934694319963455,0.2735038101673126
1903.0,-29.517879486083984,46.293338775634766,0.8304563164710999,4.733577251434326,13.666619300842285,-0.40290504693984985,-3.647714614868164,0.15895311534404755,0.0003289086453150958
1904.0,-29.518098831176758,48.749759674072266,0.8327135443687439,5.300591945648193,15.199033737182617,0.485892117023468,-2.6547138690948486,0.10400461405515671,0.3126720190048218
2081.0,-27.734420776367188,5.506748199462891,0.6963000893592834,4.491556644439697,-9.592041969299316,0.06238996610045433,-2.8260648250579834,-0.36704161763191223,0.0017036034259945154
2082.0,-27.73447036743164,6.473175525665283,0.6972812414169312,4.505000591278076,-9.280125617980957,0.2676386535167694,-3.339958429336548,-0.47297734022140503,0.0896000936627388
2083.0,-27.73453140258789,7.474898815155029,0.6984816789627075,4.378274440765381,-9.115974426269531,0.19593681395053864,-3.7987136840820312,-0.4584808647632599,0.03039274923503399
2084.0,-27.734607696533203,8.513205528259277,0.6999291181564331,4.360198497772217,-8.665268898010254,0.2947767674922943,-4.3220744132995605,-0.34636977314949036,0.021481169387698174
2085.0,-27.734695434570312,9.589432716369629,0.701654314994812,4.210520267486572,-8.30162525177002,0.2601330578327179,-4.828827381134033,-0.3679981827735901,0.07012739032506943
2086.0,-27.734798431396484,10.70496940612793,0.7036890983581543,4.082290172576904,-7.82064151763916,0.15191151201725006,-5.360385894775391,-0.40524059534072876,0.1371443271636963
2087.0,-27.734909057617188,11.861249923706055,0.7060689926147461,4.013693332672119,-7.295341968536377,0.2674889862537384,-5.845139026641846,-0.3855205178260803,0.12950097024440765
2088.0,-27.735034942626953,13.059762001037598,0.7088292837142944,3.943376302719116,-6.53579044342041,0.33308282494544983,-6.31040620803833,-0.3724527657032013,0.11797399073839188
2089.0,-27.735183715820312,14.302055358886719,0.7120027542114258,3.766232967376709,-5.813297748565674,0.2487616389989853,-6.711928844451904,-0.38135769963264465,0.11891783028841019
2090.0,-27.735340118408203,15.589723587036133,0.7156223654747009,3.688957691192627,-4.979960918426514,0.3130977153778076,-7.063900470733643,-0.3637646436691284,0.11815690994262695
2091.0,-27.73550796508789,16.924436569213867,0.7197174429893494,3.5423779487609863,-4.082302093505859,0.13214214146137238,-7.403159141540527,-0.334124356508255,0.09883827716112137
2092.0,-27.73569107055664,18.30790138244629,0.7243120670318604,3.540388345718384,-3.026496648788452,0.4431920051574707,-7.667496681213379,-0.3392316997051239,0.18079873919487
2093.0,-27.73588752746582,19.741910934448242,0.7294224500656128,3.2666304111480713,-2.16644549369812,0.12749214470386505,-7.8558855056762695,-0.3009498417377472,0.14788824319839478
2094.0,-27.736095428466797,21.228300094604492,0.7350596189498901,3.235689640045166,-1.1543656587600708,0.29252889752388,-8.0469388961792,-0.24448181688785553,0.188520610332489
2095.0,-27.736310958862305,22.768993377685547,0.7412223219871521,3.1421773433685303,-0.058452360332012177,0.07534997910261154,-8.132973670959473,-0.2440047264099121,0.06718076020479202
2096.0,-27.73653793334961,24.365968704223633,0.747898519039154,3.1475446224212646,0.975946307182312,0.2248746007680893,-8.146552085876465,-0.2521441876888275,0.17866899073123932
2097.0,-27.736774444580078,26.02128791809082,0.755060613155365,3.125100612640381,2.0480430126190186,0.018967658281326294,-8.083802223205566,-0.23397110402584076,0.0358956940472126
2098.0,-27.73702621459961,27.737077713012695,0.7626661658287048,3.3177924156188965,3.188462972640991,0.2891429364681244,-7.991555213928223,-0.20452915132045746,0.14560876786708832
2099.0,-27.737276077270508,29.515552520751953,0.7706488966941833,3.260322332382202,4.32033109664917,-0.01677992381155491,-7.91764497756958,-0.18302477896213531,0.05627906322479248
2100.0,-27.737546920776367,31.359004974365234,0.7789174318313599,3.416311025619507,5.423730850219727,0.301655650138855,-7.728302478790283,-0.13563667237758636,0.20267082750797272
2101.0,-27.73781967163086,33.26979446411133,0.787357747554779,3.260974645614624,6.481776714324951,-0.1723327934741974,-7.355762958526611,-0.08968479931354523,0.051848627626895905
2102.0,-27.738094329833984,35.25040054321289,0.795827329158783,3.649055004119873,7.906383991241455,0.36236241459846497,-7.03269100189209,-0.09133125096559525,0.2197950929403305
2103.0,-27.738370895385742,37.30337142944336,0.8041295409202576,3.706451654434204,9.065140724182129,-0.2457837015390396,-6.5957112312316895,-0.05126718059182167,0.045719780027866364
2104.0,-27.7386474609375,39.43134689331055,0.8120341300964355,4.245599746704102,10.429224967956543,0.38787931203842163,-6.118253707885742,-0.04041809216141701,0.37383097410202026
2105.0,-27.738924026489258,41.6370735168457,0.8192420601844788,4.3035197257995605,11.825186729431152,-0.33541083335876465,-5.416616439819336,-0.010047636926174164,-0.03879548981785774
2106.0,-27.739192962646484,43.923397064208984,0.8253951072692871,4.94218111038208,13.443131446838379,0.48168662190437317,-4.699626445770264,0.0823327824473381,0.2947597801685333
2107.0,-27.739442825317383,46.29326629638672,0.8300386071205139,4.965366840362549,15.011823654174805,-0.5563278794288635,-3.726649761199951,0.13634620606899261,0.054484572261571884
2108.0,-27.73967170715332,48.74972915649414,0.8326226472854614,5.818192005157471,16.911375045776367,0.5507268309593201,-2.713265895843506,0.08476229012012482,0.36130836606025696
2285.0,-26.01852798461914,5.506655693054199,0.6835499405860901,2.105633020401001,-11.655702590942383,-0.02297559194266796,-2.9568185806274414,-0.2418610155582428,0.038962867110967636
2286.0,-26.018583297729492,6.473067283630371,0.6845282316207886,2.1262166500091553,-11.318609237670898,-0.16979184746742249,-3.4911885261535645,-0.25700843334198,0.06527364999055862
2287.0,-26.018648147583008,7.474772930145264,0.6857370734214783,2.0372707843780518,-11.126814842224121,-0.2577253580093384,-3.9901926517486572,-0.23906481266021729,-0.004596407990902662
2288.0,-26.018726348876953,8.51306438446045,0.6872081160545349,2.150169610977173,-10.503714561462402,-0.033715326339006424,-4.534712314605713,-0.29282018542289734,0.10221219807863235
2289.0,-26.018815994262695,9.589276313781738,0.6889779567718506,2.0060431957244873,-10.231403350830078,-0.28378212451934814,-5.055232524871826,-0.3268568813800812,0.1362462192773819
2290.0,-26.018922805786133,10.704795837402344,0.6910862326622009,2.1016924381256104,-9.474333763122559,-0.1693688929080963,-5.619385242462158,-0.2517414391040802,0.09409892559051514
2291.0,-26.019041061401367,11.861061096191406,0.693574070930481,1.9795277118682861,-8.9316987991333,-0.21829284727573395,-6.192122459411621,-0.24777734279632568,0.06271760910749435
2292.0,-26.019180297851562,13.059561729431152,0.6964826583862305,1.9189417362213135,-8.06539249420166,-0.2198866605758667,-6.695019245147705,-0.2778899669647217,0.10388398170471191
2293.0,-26.019332885742188,14.30184268951416,0.6998512744903564,1.8370707035064697,-7.244246959686279,-0.30910372734069824,-7.085831642150879,-0.24130180478096008,0.1099790409207344
2294.0,-26.019498825073242,15.589502334594727,0.7037196755409241,1.7981741428375244,-6.2702107429504395,-0.20532095432281494,-7.431092262268066,-0.18410120904445648,0.16599760949611664
2295.0,-26.01968002319336,16.9242000579834,0.7081218957901001,1.670928716659546,-5.250195026397705,-0.22952759265899658,-7.722805500030518,-0.1767415702342987,0.14953993260860443
2296.0,-26.019868850708008,18.307661056518555,0.7130860686302185,1.6485708951950073,-4.1968607902526855,-0.14280591905117035,-7.972031593322754,-0.20766183733940125,0.1944250464439392
2297.0,-26.02006721496582,19.74165916442871,0.7186317443847656,1.583252191543579,-3.0169944763183594,-0.31518885493278503,-8.143126487731934,-0.17214761674404144,0.14805299043655396
2298.0,-26.020280838012695,21.228044509887695,0.7247704863548279,1.695505976676941,-1.7919560670852661,-0.00959270354360342,-8.261054992675781,-0.12243105471134186,0.21957364678382874
2299.0,-26.020505905151367,22.76873779296875,0.7314997315406799,1.6702176332473755,-0.6181982159614563,-0.2987160384654999,-8.274170875549316,-0.15593783557415009,0.11619830876588821
2300.0,-26.020736694335938,24.365711212158203,0.7388083934783936,1.8260022401809692,0.525557816028595,-0.024504579603672028,-8.349854469299316,-0.14119784533977509,0.1998157650232315
2301.0,-26.020978927612305,26.02103042602539,0.7466683983802795,1.8689204454421997,1.868178367614746,-0.21348121762275696,-8.299588203430176,-0.07247333973646164,0.08229269832372665
2302.0,-26.02122688293457,27.73682975769043,0.7550297379493713,2.0593698024749756,2.999063491821289,0.019988039508461952,-8.182147026062012,-0.1275414377450943,0.14753834903240204
2303.0,-26.021488189697266,29.51530647277832,0.7638210654258728,2.1400272846221924,4.241684436798096,-0.34990620613098145,-8.026871681213379,-0.14503218233585358,0.07087492942810059
2304.0,-26.021757125854492,31.3587646484375,0.7729424834251404,2.587592124938965,5.6501545906066895,0.1603245586156845,-7.808491230010986,-0.056617237627506256,0.24492809176445007
2305.0,-26.022031784057617,33.26956558227539,0.7822608351707458,2.6143229007720947,6.807621479034424,-0.3122800588607788,-7.468268871307373,-0.047726742923259735,0.034401025623083115
2306.0,-26.022310256958008,35.250186920166016,0.7916214466094971,3.104189157485962,8.296695709228516,0.22738014161586761,-7.086150169372559,-0.021292371675372124,0.265839546918869
2307.0,-26.022586822509766,37.30317687988281,0.8008126020431519,3.2536051273345947,9.642655372619629,-0.3741247355937958,-6.65146541595459,0.007860635407269001,0.05290990322828293
2308.0,-26.022872924804688,39.43117141723633,0.8095788359642029,3.9176058769226074,11.143716812133789,0.3123168647289276,-6.1696929931640625,-0.04112081602215767,0.33770477771759033
2309.0,-26.023149490356445,41.63692855834961,0.8175897598266602,4.112575054168701,12.68154525756836,-0.4984462857246399,-5.47056245803833,0.02255229651927948,-0.03574636951088905
2310.0,-26.023420333862305,43.923282623291016,0.8244462609291077,5.001648426055908,14.507628440856934,0.4567234218120575,-4.732421398162842,0.0766502097249031,0.3207802474498749
2311.0,-26.02366828918457,46.29318618774414,0.8296375870704651,5.289316177368164,16.411298751831055,-0.5378729701042175,-3.771616220474243,0.10176872462034225,0.01803230307996273
2312.0,-26.02389907836914,48.749698638916016,0.8325353860855103,6.401715278625488,18.65203857421875,0.6922876834869385,-2.7420783042907715,0.08340860158205032,0.3686337172985077
2489.0,-24.363121032714844,5.506559371948242,0.672328531742096,-0.39723441004753113,-13.713522911071777,-0.20201052725315094,-3.090461492538452,-0.4544934928417206,0.11028189212083817
2490.0,-24.363176345825195,6.472953796386719,0.6732523441314697,-0.2654475271701813,-13.241308212280273,0.0373450331389904,-3.6590218544006348,-0.38810327649116516,0.12912099063396454
2491.0,-24.363248825073242,7.474643707275391,0.674409806728363,-0.27925291657447815,-12.858458518981934,0.03656579554080963,-4.224863052368164,-0.3650285005569458,-0.005988202523440123
2492.0,-24.36332893371582,8.512917518615723,0.6758407950401306,-0.2313406765460968,-12.278922080993652,0.2118692398071289,-4.791759967803955,-0.43970993161201477,0.107340507209301
2493.0,-24.363422393798828,9.589115142822266,0.6775879859924316,-0.23789933323860168,-11.713576316833496,0.2276545763015747,-5.277233600616455,-0.41356250643730164,0.06671696156263351
2494.0,-24.363536834716797,10.704620361328125,0.6796997785568237,-0.16273336112499237,-11.020946502685547,0.2645358741283417,-5.834750175476074,-0.32321545481681824,0.08183950185775757
2495.0,-24.36366081237793,11.860871315002441,0.682224690914154,-0.20830918848514557,-10.325875282287598,0.09066594392061234,-6.427641868591309,-0.3485436737537384,0.059791114181280136
2496.0,-24.363801956176758,13.059358596801758,0.6852108240127563,-0.04905339330434799,-9.273682594299316,0.3398960828781128,-6.918915748596191,-0.3790886104106903,0.1362818330526352
2497.0,-24.363964080810547,14.301627159118652,0.6887055039405823,-0.11216332018375397,-8.34395694732666,0.24731779098510742,-7.359341144561768,-0.31092241406440735,0.06373503059148788
2498.0,-24.3641357421875,15.589277267456055,0.6927533149719238,-0.12977232038974762,-7.202895641326904,0.2270292192697525,-7.768319129943848,-0.2692182958126068,0.13762538135051727
2499.0,-24.364320755004883,16.923967361450195,0.6973942518234253,-0.13041053712368011,-6.01375675201416,0.15370021760463715,-8.027122497558594,-0.32214614748954773,0.1635017842054367
2500.0,-24.364521026611328,18.307416915893555,0.7026601433753967,-0.1286022663116455,-4.973717212677002,0.10820383578538895,-8.194347381591797,-0.38364851474761963,0.14583706855773926
2501.0,-24.364730834960938,19.741411209106445,0.7085750102996826,-0.00159080617595464,-3.58915114402771,0.06880015879869461,-8.381027221679688,-0.3719663918018341,0.11703991889953613
2502.0,-24.364946365356445,21.22779655456543,0.7151532173156738,0.20126427710056305,-2.211367607116699,0.31060388684272766,-8.543217658996582,-0.2798740863800049,0.2457946538925171
2503.0,-24.365175247192383,22.768482208251953,0.7223905920982361,0.2338939756155014,-0.8607572913169861,0.01871357299387455,-8.54372501373291,-0.23806941509246826,0.12127404659986496
2504.0,-24.365415573120117,24.365463256835938,0.7302720546722412,0.4519820809364319,0.337339848279953,0.22913062572479248,-8.502022743225098,-0.24094486236572266,0.21994277834892273
2505.0,-24.365659713745117,26.020784378051758,0.7387690544128418,0.5495339035987854,1.712194561958313,-0.09662732481956482,-8.384791374206543,-0.18212725222110748,0.17650629580020905
2506.0,-24.365907669067383,27.736583709716797,0.7478287220001221,0.9478570222854614,3.1268539428710938,0.33154115080833435,-8.22569751739502,-0.18464384973049164,0.23947212100028992
2507.0,-24.366168975830078,29.515071868896484,0.7573700547218323,1.0988587141036987,4.402589797973633,-0.13825984299182892,-8.110149383544922,-0.20219789445400238,0.0900852158665657
2508.0,-24.366439819335938,31.35853385925293,0.7672871947288513,1.7224538326263428,5.945409774780273,0.3939606845378876,-7.874565601348877,-0.1373271495103836,0.3138985335826874
2509.0,-24.366714477539062,33.269351959228516,0.7774333953857422,1.8525782823562622,7.207755088806152,-0.2238617241382599,-7.561733722686768,-0.08643633872270584,0.09071869403123856
2510.0,-24.366992950439453,35.2499885559082,0.7876353859901428,2.4558603763580322,8.739615440368652,0.3067376911640167,-7.0926289558410645,-0.049765411764383316,0.2906031906604767
2511.0,-24.367271423339844,37.302982330322266,0.7976670861244202,2.7970468997955322,10.251877784729004,-0.31818887591362,-6.624083518981934,-0.007245093584060669,0.004294993821531534
2512.0,-24.3675537109375,39.43100357055664,0.8072505593299866,3.732686996459961,11.976198196411133,0.49944359064102173,-6.136512279510498,-0.009239538572728634,0.3559613823890686
2513.0,-24.367830276489258,41.636783599853516,0.8160238862037659,4.0718231201171875,13.647255897521973,-0.4336891770362854,-5.447226524353027,0.02049257420003414,0.030977560207247734
2514.0,-24.368091583251953,43.92317199707031,0.8235483765602112,5.174678325653076,15.626723289489746,0.5592906475067139,-4.684634685516357,0.057760562747716904,0.3530685603618622
2515.0,-24.368345260620117,46.29311752319336,0.8292584419250488,5.5888142585754395,17.721601486206055,-0.6190618872642517,-3.734248638153076,0.08773528784513474,-0.010235131718218327
2516.0,-24.36857795715332,48.749671936035156,0.8324527144432068,6.880542278289795,20.23492431640625,0.6446223855018616,-2.729566812515259,0.0666346475481987,0.37309572100639343
2693.0,-22.766067504882812,5.506464004516602,0.662837028503418,-2.7315878868103027,-15.493789672851562,0.35463932156562805,-3.0546953678131104,-0.3410707116127014,0.07860226184129715
2694.0,-22.76612663269043,6.472842693328857,0.6636407375335693,-2.6922740936279297,-15.245954513549805,0.0653582289814949,-3.6203744411468506,-0.26329660415649414,0.06463614106178284
2695.0,-22.766197204589844,7.474514484405518,0.6646759510040283,-2.5429036617279053,-14.731825828552246,0.016499696299433708,-4.256086826324463,-0.24999724328517914,0.08387316018342972
2696.0,-22.76628303527832,8.512772560119629,0.6659898161888123,-2.5253608226776123,-14.287459373474121,-0.14670239388942719,-4.858468532562256,-0.30489829182624817,0.09070044010877609
2697.0,-22.766386032104492,9.58895206451416,0.6676335334777832,-2.58976149559021,-13.753400802612305,-0.3676024079322815,-5.457193374633789,-0.28722670674324036,-0.01147313043475151
2698.0,-22.766496658325195,10.70444393157959,0.6696658134460449,-2.4824047088623047,-12.801909446716309,-0.07751249521970749,-6.095982074737549,-0.2303459495306015,0.1336982250213623
2699.0,-22.766632080078125,11.860678672790527,0.6721429228782654,-2.570061683654785,-12.016824722290039,-0.25084224343299866,-6.717918395996094,-0.2420494258403778,0.1088014766573906
2700.0,-22.766782760620117,13.059152603149414,0.6751222610473633,-2.432436227798462,-10.916024208068848,-0.08774930238723755,-7.244433403015137,-0.2678147256374359,0.16241417825222015
2701.0,-22.766950607299805,14.301408767700195,0.6786612272262573,-2.413951873779297,-9.851021766662598,-0.22746382653713226,-7.641910076141357,-0.24310623109340668,0.06110832095146179
2702.0,-22.767127990722656,15.589049339294434,0.6828102469444275,-2.1935408115386963,-8.476420402526855,-0.11656130105257034,-8.014571189880371,-0.23042532801628113,0.13910411298274994
2703.0,-22.76732063293457,16.923728942871094,0.6876149773597717,-1.973360300064087,-7.040390968322754,-0.10712380707263947,-8.288468360900879,-0.23581859469413757,0.20665274560451508
2704.0,-22.76752471923828,18.307174682617188,0.6931113004684448,-1.8293015956878662,-5.720158100128174,-0.011479423381388187,-8.496826171875,-0.1973850578069687,0.18636499345302582
2705.0,-22.767742156982422,19.741165161132812,0.6993241906166077,-1.7460898160934448,-4.308029651641846,-0.19095179438591003,-8.572555541992188,-0.14795111119747162,0.1371098756790161
2706.0,-22.767961502075195,21.22754669189453,0.7062711715698242,-1.5019952058792114,-2.9079720973968506,-0.08643627911806107,-8.613158226013184,-0.1304391771554947,0.2415793240070343
2707.0,-22.76819610595703,22.76823616027832,0.713950514793396,-1.3743152618408203,-1.40919828414917,-0.32221052050590515,-8.604229927062988,-0.1570846289396286,0.09135883301496506
2708.0,-22.768434524536133,24.365217208862305,0.722343385219574,-0.9127260446548462,0.18854495882987976,0.05903488025069237,-8.54211139678955,-0.17618145048618317,0.24248120188713074
2709.0,-22.768678665161133,26.020540237426758,0.7314141988754272,-0.707809329032898,1.4600543975830078,-0.35858842730522156,-8.461577415466309,-0.13584654033184052,0.18415270745754242
2710.0,-22.76893424987793,27.736345291137695,0.7411080002784729,-0.12082553654909134,3.0774149894714355,0.18499325215816498,-8.265670776367188,-0.09806878864765167,0.2981571853160858
2711.0,-22.769193649291992,29.514842987060547,0.7513382434844971,0.08735113590955734,4.514328479766846,-0.3020000755786896,-8.08242416381836,-0.10532402247190475,0.14447301626205444
2712.0,-22.76946258544922,31.35831069946289,0.7619897127151489,0.7956952452659607,6.063923358917236,0.18882876634597778,-7.755627632141113,-0.1202433779835701,0.3447902500629425
2713.0,-22.769731521606445,33.26913833618164,0.772907018661499,1.2481449842453003,7.602898120880127,-0.34464627504348755,-7.475058555603027,-0.07218048721551895,0.12639500200748444
2714.0,-22.77001190185547,35.24979019165039,0.7838969826698303,2.0979421138763428,9.293251037597656,0.3413901925086975,-7.006038665771484,-0.040961120277643204,0.3248608112335205
2715.0,-22.770286560058594,37.30281066894531,0.7947153449058533,2.3848116397857666,10.791459083557129,-0.43350526690483093,-6.518683910369873,-0.031052203848958015,0.07266023755073547
2716.0,-22.77056121826172,39.430850982666016,0.8050642609596252,3.413756847381592,12.617914199829102,0.3747391402721405,-6.024787425994873,-0.005858704913407564,0.4070172607898712
2717.0,-22.770832061767578,41.63664627075195,0.8145524263381958,3.924058437347412,14.470437049865723,-0.5476133227348328,-5.367801666259766,0.002542722737416625,0.07177317887544632
2718.0,-22.771095275878906,43.92306137084961,0.8227049112319946,5.246224880218506,16.660001754760742,0.5812501311302185,-4.599674224853516,0.014385274611413479,0.4328380227088928
2719.0,-22.771343231201172,46.29303741455078,0.8289023637771606,5.855342388153076,18.969045639038086,-0.6845059990882874,-3.677232265472412,0.08376720547676086,0.04631190001964569
2720.0,-22.771574020385742,48.749656677246094,0.8323749303817749,7.391064167022705,21.777053833007812,0.7050491571426392,-2.714618444442749,0.07914067059755325,0.4289505183696747
2897.0,-21.225313186645508,5.506370544433594,0.6552562713623047,-5.657696723937988,-18.137487411499023,-0.5600495934486389,-3.151630163192749,-0.46712377667427063,-0.023345835506916046
2898.0,-21.225374221801758,6.472731590270996,0.6558606624603271,-5.511101245880127,-17.471757888793945,-0.12091655284166336,-3.7977752685546875,-0.43499475717544556,0.00497615709900856
2899.0,-21.225448608398438,7.474387168884277,0.6566867828369141,-5.458507061004639,-16.911500930786133,-0.004588782787322998,-4.439480304718018,-0.40099620819091797,0.1205471009016037
2900.0,-21.22553825378418,8.512626647949219,0.6577915549278259,-5.290818691253662,-16.25621223449707,0.20202316343784332,-5.08898401260376,-0.3583555817604065,0.09543121606111526
2901.0,-21.22564125061035,9.588789939880371,0.659236490726471,-5.167526721954346,-15.476905822753906,0.2859058678150177,-5.671459674835205,-0.39204198122024536,0.050112247467041016
2902.0,-21.22576332092285,10.704261779785156,0.6610917448997498,-4.999340534210205,-14.493269920349121,0.26557981967926025,-6.290381908416748,-0.43087008595466614,0.1997276246547699
2903.0,-21.225900650024414,11.860485076904297,0.6634253859519958,-4.9030842781066895,-13.513246536254883,0.04817119613289833,-6.884400367736816,-0.4002684950828552,0.10735929757356644
2904.0,-21.226058959960938,13.058945655822754,0.666304349899292,-4.650506973266602,-12.345085144042969,0.1415150761604309,-7.439148426055908,-0.3783435821533203,0.06054293364286423
2905.0,-21.226228713989258,14.301191329956055,0.6697949767112732,-4.488214015960693,-10.885921478271484,0.09433526545763016,-7.915378093719482,-0.3232828676700592,0.11618483811616898
2906.0,-21.226417541503906,15.588820457458496,0.6739568710327148,-4.3077392578125,-9.49393367767334,0.2197997272014618,-8.2075777053833,-0.33530303835868835,0.24579432606697083
2907.0,-21.22661590576172,16.923494338989258,0.6788416504859924,-4.13816499710083,-7.971973896026611,0.03733334317803383,-8.425056457519531,-0.35016798973083496,0.2499317228794098
2908.0,-21.226823806762695,18.30693817138672,0.6844902634620667,-3.8781626224517822,-6.494256019592285,0.12574635446071625,-8.58287525177002,-0.27557480335235596,0.23886334896087646
2909.0,-21.22704315185547,19.740922927856445,0.6909286975860596,-3.5211987495422363,-4.72442102432251,0.09162556380033493,-8.667590141296387,-0.24712452292442322,0.17967194318771362
2910.0,-21.227270126342773,21.22730827331543,0.6981715559959412,-3.0694940090179443,-3.1346192359924316,0.3403307795524597,-8.687240600585938,-0.24719585478305817,0.20702610909938812
2911.0,-21.227506637573242,22.76799774169922,0.7062192559242249,-2.7744333744049072,-1.6902025938034058,-0.004749575164169073,-8.648353576660156,-0.2397327423095703,0.11226630210876465
2912.0,-21.227745056152344,24.36497688293457,0.7150547504425049,-2.1075074672698975,0.16853846609592438,0.4084005057811737,-8.52893352508545,-0.22298607230186462,0.27103790640830994
2913.0,-21.227989196777344,26.020307540893555,0.7246350049972534,-1.852768063545227,1.544998049736023,-0.1177218109369278,-8.397110939025879,-0.16459767520427704,0.14736555516719818
2914.0,-21.228242874145508,27.736116409301758,0.7348983287811279,-1.2370290756225586,3.0989484786987305,0.23472215235233307,-8.174068450927734,-0.08845272660255432,0.26607832312583923
2915.0,-21.228498458862305,29.514619827270508,0.7457541227340698,-0.7582371234893799,4.810075759887695,-0.16488610208034515,-7.958499431610107,-0.08596980571746826,0.15539975464344025
2916.0,-21.228761672973633,31.35810661315918,0.7570767998695374,0.07035261392593384,6.377960681915283,0.31282830238342285,-7.6251630783081055,-0.13754592835903168,0.31690821051597595
2917.0,-21.229032516479492,33.26894760131836,0.7687010169029236,0.5830655694007874,8.025985717773438,-0.27012279629707336,-7.324578285217285,-0.1259826272726059,0.13754618167877197
2918.0,-21.22930145263672,35.24960708618164,0.7804194688796997,1.5493605136871338,9.775654792785645,0.3975389003753662,-6.86973237991333,-0.09876181185245514,0.36540722846984863
2919.0,-21.229576110839844,37.302642822265625,0.7919678092002869,2.007632255554199,11.375510215759277,-0.3736439049243927,-6.367534637451172,-0.08836805075407028,0.15778349339962006
2920.0,-21.22984504699707,39.43069839477539,0.8030286431312561,3.2674880027770996,13.368424415588379,0.5385940074920654,-5.834657669067383,-0.013208216987550259,0.4158647358417511
2921.0,-21.23011016845703,41.63652420043945,0.8131828308105469,3.8886523246765137,15.312727928161621,-0.5489252209663391,-5.212127208709717,0.09291993826627731,0.060856904834508896
2922.0,-21.230363845825195,43.922969818115234,0.8219203948974609,5.391666889190674,17.691503524780273,0.6815431118011475,-4.437983989715576,0.08336137235164642,0.46901872754096985
2923.0,-21.230607986450195,46.29297637939453,0.8285718560218811,6.0319013595581055,20.132606506347656,-0.6991777420043945,-3.554403781890869,0.0978715717792511,0.05094793811440468
2924.0,-21.230833053588867,48.749629974365234,0.8323026299476624,7.765334606170654,23.171159744262695,0.7519540786743164,-2.6533021926879883,0.08976855874061584,0.4732411503791809
3101.0,-19.738876342773438,5.506279468536377,0.6497672200202942,-8.457550048828125,-20.0031795501709,0.6695275902748108,-3.0900747776031494,-0.275389701128006,0.056796249002218246
3102.0,-19.73893928527832,6.472621440887451,0.6500702500343323,-8.341503143310547,-19.67033576965332,0.16709598898887634,-3.7678585052490234,-0.3830733299255371,-0.0007850467227399349
3103.0,-19.739015579223633,7.474257946014404,0.6505793929100037,-8.179160118103027,-19.042253494262695,0.017138121649622917,-4.445301532745361,-0.5152940154075623,0.17511913180351257
3104.0,-19.739107131958008,8.512480735778809,0.6513622403144836,-8.036002159118652,-18.506568908691406,-0.2035970687866211,-5.041590213775635,-0.44790560007095337,0.08161551505327225
3105.0,-19.739213943481445,9.58862590789795,0.6524941921234131,-7.747776508331299,-17.569801330566406,-0.2683463394641876,-5.797276020050049,-0.3890170753002167,0.10751266032457352
3106.0,-19.739341735839844,10.704082489013672,0.6540594696998596,-7.596175670623779,-16.496496200561523,-0.13831007480621338,-6.476447105407715,-0.4414381682872772,0.2767987549304962
3107.0,-19.739484786987305,11.860289573669434,0.6561408042907715,-7.416538715362549,-15.282280921936035,-0.20188583433628082,-7.060749530792236,-0.33786508440971375,0.1812138706445694
3108.0,-19.739646911621094,13.058737754821777,0.6588158011436462,-7.075976371765137,-13.819869041442871,-0.03904701769351959,-7.599086284637451,-0.2242898941040039,0.05688980221748352
3109.0,-19.739824295043945,14.300972938537598,0.6621589064598083,-6.765560626983643,-12.247051239013672,-0.1633918136358261,-8.025080680847168,-0.20655857026576996,0.15041698515415192
3110.0,-19.740020751953125,15.588594436645508,0.6662380695343018,-6.437493324279785,-10.607260704040527,-0.0730753168463707,-8.343064308166504,-0.17097383737564087,0.24956513941287994
3111.0,-19.74022102355957,16.923263549804688,0.6711111068725586,-6.248229503631592,-8.934741020202637,-0.23398281633853912,-8.546000480651855,-0.1992691606283188,0.17804980278015137
3112.0,-19.740434646606445,18.306703567504883,0.6768240332603455,-5.7328691482543945,-7.202033042907715,0.002445952268317342,-8.622391700744629,-0.2236192524433136,0.22354912757873535
3113.0,-19.740659713745117,19.740690231323242,0.6834058165550232,-5.339965343475342,-5.475819110870361,-0.31790363788604736,-8.687886238098145,-0.2136051505804062,0.20944884419441223
3114.0,-19.740888595581055,21.227075576782227,0.6908712387084961,-4.679042339324951,-3.5394551753997803,0.10247940570116043,-8.668646812438965,-0.20062555372714996,0.23811912536621094
3115.0,-19.741119384765625,22.76776885986328,0.699216902256012,-4.313804626464844,-2.0072920322418213,-0.2885816991329193,-8.51549243927002,-0.16304653882980347,0.17473343014717102
3116.0,-19.741361618041992,24.364749908447266,0.7084231376647949,-3.615631341934204,-0.25394877791404724,-0.012328303419053555,-8.371357917785645,-0.15210247039794922,0.28072044253349304
3117.0,-19.741601943969727,26.020084381103516,0.7184447646141052,-3.0356504917144775,1.5008896589279175,-0.30416369438171387,-8.198612213134766,-0.15801383554935455,0.16299569606781006
3118.0,-19.741849899291992,27.735902786254883,0.72921222448349,-2.237536668777466,3.1347665786743164,0.05486322194337845,-8.047850608825684,-0.1091979593038559,0.22693465650081635
3119.0,-19.742109298706055,29.51441764831543,0.7406272292137146,-1.6832540035247803,4.919151306152344,-0.30981209874153137,-7.75244140625,-0.10889585316181183,0.14188623428344727
3120.0,-19.74236297607422,31.357908248901367,0.7525567412376404,-0.7339938879013062,6.619845867156982,0.23423323035240173,-7.398922443389893,-0.12164538353681564,0.3056766092777252
3121.0,-19.742624282836914,33.26875686645508,0.7648240327835083,-0.038654789328575134,8.382111549377441,-0.37848564982414246,-7.090857982635498,-0.03534197434782982,0.1712430715560913
3122.0,-19.742889404296875,35.24943542480469,0.7772101759910583,1.145640254020691,10.240845680236816,0.3948162794113159,-6.680041790008545,-0.008150489069521427,0.3946569561958313
3123.0,-19.74315643310547,37.302486419677734,0.7894306778907776,1.6540108919143677,11.886460304260254,-0.4815763831138611,-6.199722766876221,-0.029536304995417595,0.11924219876527786
3124.0,-19.74341583251953,39.43056106567383,0.801148533821106,2.9946513175964355,13.959657669067383,0.4874386191368103,-5.637982368469238,0.002907032147049904,0.4108753800392151
3125.0,-19.74367332458496,41.636409759521484,0.8119181394577026,3.7771992683410645,16.058305740356445,-0.5743641257286072,-5.061152935028076,0.04872158169746399,0.061601635068655014
3126.0,-19.743919372558594,43.92287826538086,0.8211959600448608,5.519154071807861,18.62626075744629,0.7057315111160278,-4.308250427246094,0.0546131357550621,0.5099656581878662
3127.0,-19.74415397644043,46.29291534423828,0.8282670378684998,6.3262553215026855,21.2529296875,-0.772104024887085,-3.4725053310394287,0.1271653175354004,0.05996570363640785
3128.0,-19.74437141418457,48.74960708618164,0.8322362899780273,8.21773624420166,24.496334075927734,0.7933323383331299,-2.5906031131744385,0.1104724332690239,0.5008750557899475
3305.0,-18.304853439331055,5.506196022033691,0.6465345025062561,-12.07466983795166,-22.912857055664062,-0.7509201765060425,-2.9348649978637695,-0.7029303908348083,0.02851380594074726
3306.0,-18.304914474487305,6.472519397735596,0.6464173197746277,-11.741201400756836,-22.28656005859375,-0.2736479341983795,-3.6259191036224365,-0.5781676769256592,0.10998629778623581
3307.0,-18.304990768432617,7.474136829376221,0.6464784145355225,-11.346192359924316,-21.509864807128906,-0.11842649430036545,-4.3566060066223145,-0.5322579741477966,0.1233832985162735
3308.0,-18.305086135864258,8.512337684631348,0.646806001663208,-11.16489315032959,-20.79221534729004,0.13760779798030853,-5.110104084014893,-0.501436710357666,0.0748935416340828
3309.0,-18.305192947387695,9.58846378326416,0.6474916934967041,-10.872427940368652,-19.42397117614746,0.3479306101799011,-5.823383808135986,-0.3741133511066437,0.1561058759689331
3310.0,-18.305328369140625,10.70390510559082,0.6486349105834961,-10.643630981445312,-18.489809036254883,0.028535200282931328,-6.464165687561035,-0.4639940559864044,0.20220054686069489
3311.0,-18.30547523498535,11.860098838806152,0.6503360867500305,-10.155865669250488,-16.865205764770508,0.1207428053021431,-7.028384208679199,-0.47788116335868835,0.1907622218132019
3312.0,-18.305641174316406,13.058533668518066,0.6526862978935242,-9.773646354675293,-15.360532760620117,0.12588928639888763,-7.6144795417785645,-0.31419673562049866,0.1692838817834854
3313.0,-18.305822372436523,14.300759315490723,0.6557703018188477,-9.275591850280762,-13.462492942810059,0.06521826237440109,-8.098556518554688,-0.3545418083667755,0.1143365427851677
3314.0,-18.306020736694336,15.588376998901367,0.6596651077270508,-8.636810302734375,-11.528534889221191,0.24371302127838135,-8.396906852722168,-0.37272027134895325,0.22511865198612213
3315.0,-18.306230545043945,16.92304229736328,0.6644324660301208,-8.223190307617188,-9.716752052307129,-0.058180153369903564,-8.599848747253418,-0.33376646041870117,0.2119908183813095
3316.0,-18.30644416809082,18.306474685668945,0.670121431350708,-7.652968406677246,-7.772911071777344,0.250897616147995,-8.619258880615234,-0.2887157201766968,0.2669782340526581
3317.0,-18.306669235229492,19.74046516418457,0.6767635941505432,-7.149150848388672,-5.8578877449035645,-0.10306227207183838,-8.604369163513184,-0.1629817634820938,0.16042500734329224
3318.0,-18.30689811706543,21.226852416992188,0.6843733191490173,-6.331215858459473,-3.8761422634124756,0.21781858801841736,-8.561112403869629,-0.18748098611831665,0.23343324661254883
3319.0,-18.30712890625,22.767549514770508,0.6929439306259155,-5.7314653396606445,-2.0350916385650635,-0.09361212700605392,-8.370186805725098,-0.23870502412319183,0.2112477719783783
3320.0,-18.30735969543457,24.364543914794922,0.7024497985839844,-4.824702739715576,-0.2685653269290924,0.301373690366745,-8.236747741699219,-0.13761626183986664,0.28051650524139404
3321.0,-18.307601928710938,26.01988410949707,0.7128433585166931,-4.183676242828369,1.5623255968093872,-0.019299877807497978,-7.986685752868652,-0.15094627439975739,0.19792333245277405
3322.0,-18.307846069335938,27.735706329345703,0.7240486741065979,-3.305562973022461,3.3172566890716553,0.24936343729496002,-7.8105387687683105,-0.21891389787197113,0.2775465250015259
3323.0,-18.30809211730957,29.514223098754883,0.7359580397605896,-2.4782912731170654,5.146477222442627,-0.11864788830280304,-7.508334636688232,-0.1782638430595398,0.22123895585536957
3324.0,-18.308347702026367,31.357725143432617,0.7484316229820251,-1.4168320894241333,6.9387431144714355,0.3585290312767029,-7.175812244415283,-0.11433853209018707,0.3602900505065918
3325.0,-18.308595657348633,33.26858901977539,0.7612805366516113,-0.6882662177085876,8.741007804870605,-0.3320569097995758,-6.851469993591309,-0.04094314202666283,0.15824943780899048
3326.0,-18.308853149414062,35.2492790222168,0.7742725014686584,0.7370129227638245,10.703401565551758,0.5059986710548401,-6.441833019256592,-0.007083404343575239,0.43058082461357117
3327.0,-18.309110641479492,37.30234146118164,0.7871067523956299,1.4492387771606445,12.447470664978027,-0.4765380024909973,-5.997925758361816,-0.015723051503300667,0.06767982989549637
3328.0,-18.309362411499023,39.4304313659668,0.7994251847267151,2.936039447784424,14.630995750427246,0.5795926451683044,-5.405307292938232,-0.01070551760494709,0.41993284225463867
3329.0,-18.309608459472656,41.636295318603516,0.810757577419281,3.7447969913482666,16.77803611755371,-0.5736269354820251,-4.83356237411499,0.002427762607112527,0.09051777422428131
3330.0,-18.309844970703125,43.922786712646484,0.8205304741859436,5.498741626739502,19.410181045532227,0.6468190550804138,-4.099401950836182,-0.008840407244861126,0.5647783279418945
3331.0,-18.310068130493164,46.29285430908203,0.8279870748519897,6.405894756317139,22.247241973876953,-0.7999691963195801,-3.3237528800964355,0.0903981626033783,0.08677494525909424
3332.0,-18.31028175354004,48.74958038330078,0.8321753144264221,8.566594123840332,25.733715057373047,0.9190007448196411,-2.4932520389556885,0.10393615067005157,0.5453119277954102
3509.0,-16.92140007019043,5.506121635437012,0.6457262635231018,-15.518211364746094,-24.83364486694336,1.068764090538025,-2.719459056854248,-0.43618008494377136,0.07106971740722656
3510.0,-16.92146110534668,6.472424030303955,0.6450347900390625,-15.332436561584473,-24.695480346679688,0.23063555359840393,-3.5152223110198975,-0.5174441337585449,0.1069488376379013
3511.0,-16.921537399291992,7.474020957946777,0.6444922089576721,-15.010176658630371,-24.11489486694336,0.16900061070919037,-4.316562652587891,-0.5418601632118225,0.3035166561603546
3512.0,-16.921630859375,8.512203216552734,0.6442041993141174,-14.591378211975098,-23.126049041748047,-0.045586422085762024,-5.046199798583984,-0.5772888660430908,0.20732644200325012
3513.0,-16.921743392944336,9.588309288024902,0.6442868113517761,-14.237749099731445,-22.139598846435547,-0.2864737808704376,-5.845092296600342,-0.5170593857765198,0.21447381377220154
3514.0,-16.921875,10.703733444213867,0.6448579430580139,-13.642648696899414,-20.316484451293945,0.02051662839949131,-6.567604064941406,-0.40511468052864075,0.18427404761314392
3515.0,-16.922025680541992,11.85991096496582,0.6460346579551697,-13.247429847717285,-18.82835578918457,-0.2039269059896469,-7.150444507598877,-0.38240358233451843,0.25038161873817444
3516.0,-16.92219352722168,13.058335304260254,0.6479265093803406,-12.63424015045166,-17.00372886657715,-0.08877734839916229,-7.661217212677002,-0.31836652755737305,0.29797032475471497
3517.0,-16.922380447387695,14.300552368164062,0.6506297588348389,-11.914908409118652,-14.919828414916992,-0.1958477646112442,-8.015503883361816,-0.3039480745792389,0.17932699620723724
3518.0,-16.922578811645508,15.588164329528809,0.654229462146759,-11.053244590759277,-12.639784812927246,0.009860712103545666,-8.363137245178223,-0.2763850688934326,0.3339059054851532
3519.0,-16.922788619995117,16.922822952270508,0.6587924361228943,-10.419692039489746,-10.653063774108887,-0.34387442469596863,-8.484088897705078,-0.2167835533618927,0.2895335853099823
3520.0,-16.923004150390625,18.30626106262207,0.6643692851066589,-9.403580665588379,-8.366877555847168,0.10763174295425415,-8.508912086486816,-0.20823702216148376,0.30000507831573486
3521.0,-16.923227310180664,19.740251541137695,0.670989990234375,-8.719502449035645,-6.146880626678467,-0.07115965336561203,-8.396246910095215,-0.1493891328573227,0.20367810130119324
3522.0,-16.92345428466797,21.226640701293945,0.6786644458770752,-8.001481056213379,-4.411104679107666,-0.02250651642680168,-8.400904655456543,-0.1699349582195282,0.2855628430843353
3523.0,-16.923683166503906,22.767345428466797,0.6873864531517029,-7.20047664642334,-2.2471415996551514,-0.2411947250366211,-8.179408073425293,-0.20204880833625793,0.2283477485179901
3524.0,-16.923912048339844,24.364341735839844,0.6971240639686584,-6.138793468475342,-0.36615779995918274,0.14347314834594727,-7.978339195251465,-0.10505063831806183,0.2562355697154999
3525.0,-16.92414665222168,26.01968765258789,0.7078227400779724,-5.217500686645508,1.5669623613357544,-0.2057567685842514,-7.727779865264893,-0.05893576517701149,0.21809767186641693
3526.0,-16.924379348754883,27.73552131652832,0.7194017767906189,-4.142013072967529,3.4445364475250244,0.14768415689468384,-7.514218330383301,-0.07972659915685654,0.3653096854686737
3527.0,-16.924619674682617,29.51405143737793,0.7317429184913635,-3.3730924129486084,5.150134563446045,-0.35332727432250977,-7.222484588623047,-0.08736146986484528,0.2371513545513153
3528.0,-16.924863815307617,31.35755729675293,0.744697630405426,-2.052241086959839,7.174796104431152,0.2931547164916992,-6.901473045349121,-0.07123016566038132,0.3884294331073761
3529.0,-16.92510414123535,33.2684326171875,0.7580656409263611,-1.1380668878555298,9.103042602539062,-0.3927909731864929,-6.55179500579834,-0.054991986602544785,0.125231072306633
3530.0,-16.92534828186035,35.24913024902344,0.771602213382721,0.2579224407672882,11.039557456970215,0.35125094652175903,-6.148975849151611,-0.023505793884396553,0.4623732566833496
3531.0,-16.925596237182617,37.30221176147461,0.7849922180175781,1.028775691986084,12.856270790100098,-0.5832714438438416,-5.748519420623779,-0.025212612003087997,0.1231074407696724
3532.0,-16.92583656311035,39.43031311035156,0.797856867313385,2.7480738162994385,15.181310653686523,0.5829835534095764,-5.154373645782471,-0.04603962600231171,0.4918615520000458
3533.0,-16.926071166992188,41.636199951171875,0.8097019195556641,3.7377684116363525,17.443681716918945,-0.6625813841819763,-4.608614444732666,0.018083879724144936,0.0735856369137764
3534.0,-16.926298141479492,43.922706604003906,0.8199261426925659,5.686783313751221,20.244264602661133,0.7045726180076599,-3.907449960708618,0.008552557788789272,0.5251789093017578
3535.0,-16.926511764526367,46.29281234741211,0.8277330994606018,6.663578510284424,23.217470169067383,-0.8113023042678833,-3.1649110317230225,0.03591325506567955,0.055857863277196884
3536.0,-16.926712036132812,48.74957275390625,0.8321203589439392,8.918160438537598,26.833681106567383,0.9251104593276978,-2.3742449283599854,0.06416407972574234,0.5841817855834961
3713.0,-15.586747169494629,5.506053447723389,0.6474893093109131,-19.976516723632812,-28.480998992919922,-1.2995234727859497,-2.6782281398773193,-0.9905056357383728,0.020765291526913643
3714.0,-15.58680534362793,6.472336769104004,0.6460450291633606,-19.503189086914062,-27.56637954711914,-0.31989791989326477,-3.3996129035949707,-0.9161848425865173,0.233381986618042
3715.0,-15.586875915527344,7.47391414642334,0.6447091698646545,-19.182661056518555,-26.98588752746582,-0.3389694392681122,-4.1493401527404785,-0.8055559396743774,0.12525145709514618
3716.0,-15.586967468261719,8.51207447052002,0.6436188220977783,-18.560653686523438,-25.751583099365234,-0.01602335087954998,-5.002307415008545,-0.6588422656059265,0.21079254150390625
3717.0,-15.587080001831055,9.58816146850586,0.6429166197776794,-17.85030174255371,-24.241851806640625,0.259725958108902,-5.7174458503723145,-0.6205732226371765,0.28448954224586487
3718.0,-15.587210655212402,10.703566551208496,0.6427438259124756,-17.178510665893555,-22.72642707824707,0.017448000609874725,-6.392459869384766,-0.5940024256706238,0.25510168075561523
3719.0,-15.587363243103027,11.859731674194336,0.6432390809059143,-16.313505172729492,-20.412527084350586,0.08471959829330444,-7.087639808654785,-0.49974825978279114,0.3385339379310608
3720.0,-15.587530136108398,13.058144569396973,0.6445295810699463,-15.358589172363281,-18.407384872436523,0.23889896273612976,-7.514232158660889,-0.43582895398139954,0.35410836338996887
3721.0,-15.587714195251465,14.300352096557617,0.6467218995094299,-14.447426795959473,-16.01030158996582,0.09706303477287292,-7.979737281799316,-0.42284107208251953,0.24924519658088684
3722.0,-15.587912559509277,15.587958335876465,0.6499090194702148,-13.59083366394043,-13.760756492614746,0.09239275008440018,-8.219267845153809,-0.37190893292427063,0.4154207706451416
3723.0,-15.588119506835938,16.92262077331543,0.6541630625724792,-12.597879409790039,-11.312760353088379,-0.02258230559527874,-8.364253044128418,-0.2899935245513916,0.26535579562187195
3724.0,-15.588334083557129,18.306055068969727,0.6595351099967957,-11.430474281311035,-8.90127944946289,0.28586718440055847,-8.377129554748535,-0.31323885917663574,0.27957841753959656
3725.0,-15.588553428649902,19.740049362182617,0.6660518050193787,-10.44728946685791,-6.519993782043457,-0.050722844898700714,-8.291266441345215,-0.2476397454738617,0.3321610689163208
3726.0,-15.588774681091309,21.226442337036133,0.6737176179885864,-9.414641380310059,-4.558715343475342,0.13264793157577515,-8.103043556213379,-0.18834033608436584,0.4050913155078888
3727.0,-15.588998794555664,22.767152786254883,0.6825211048126221,-8.376883506774902,-2.2737271785736084,-0.059375885874032974,-7.859860420227051,-0.18396955728530884,0.2606407701969147
3728.0,-15.58922004699707,24.364154815673828,0.692423939704895,-7.265625953674316,-0.31032922863960266,0.2863767445087433,-7.573192119598389,-0.16155456006526947,0.25487104058265686
3729.0,-15.589445114135742,26.019514083862305,0.7033631801605225,-6.29494047164917,1.58833646774292,-0.1892244964838028,-7.404051780700684,-0.143137589097023,0.20053336024284363
3730.0,-15.58967399597168,27.735353469848633,0.7152529358863831,-4.962713241577148,3.6046926975250244,0.28785181045532227,-7.211539268493652,-0.10631013661623001,0.3579581081867218
3731.0,-15.589902877807617,29.513885498046875,0.7279645204544067,-4.00161600112915,5.385836601257324,-0.21025511622428894,-6.906856060028076,-0.16851943731307983,0.15355819463729858
3732.0,-15.590132713317871,31.357404708862305,0.741339921951294,-2.6163361072540283,7.47288179397583,0.43141889572143555,-6.576938629150391,-0.18370161950588226,0.4092288315296173
3733.0,-15.590363502502441,33.26828384399414,0.7551683783531189,-1.7031232118606567,9.41480541229248,-0.35325857996940613,-6.227210521697998,-0.09035582840442657,0.16268737614154816
3734.0,-15.590597152709961,35.24899673461914,0.7691921591758728,-0.07074162364006042,11.450554847717285,0.4476228356361389,-5.8468546867370605,-0.04570856690406799,0.49229615926742554
3735.0,-15.590829849243164,37.30208969116211,0.783082127571106,0.9825052618980408,13.429108619689941,-0.4404605031013489,-5.504947185516357,-0.030581938102841377,0.1761644035577774
3736.0,-15.591062545776367,39.43020248413086,0.7964396476745605,2.675333261489868,15.719054222106934,0.6242824196815491,-4.9120869636535645,0.01272971834987402,0.5693194270133972
3737.0,-15.591283798217773,41.636104583740234,0.8087477684020996,3.6401121616363525,18.04949951171875,-0.7120322585105896,-4.380431652069092,0.04661354795098305,0.06722729653120041
3738.0,-15.591497421264648,43.92264175415039,0.8193802237510681,5.765138626098633,20.986791610717773,0.7591219544410706,-3.7318344116210938,0.019746141508221626,0.5521641373634338
3739.0,-15.59169864654541,46.292762756347656,0.8275041580200195,6.87263822555542,24.089031219482422,-0.8342913389205933,-3.0295071601867676,0.062391988933086395,0.03585528954863548
3740.0,-15.591890335083008,48.749549865722656,0.8320707082748413,9.240073204040527,27.850543975830078,0.925749659538269,-2.2700908184051514,0.06825654953718185,0.5705748200416565
3917.0,-14.299195289611816,5.5060014724731445,0.6519929766654968,-25.355525970458984,-30.521440505981445,1.3564574718475342,-1.988109827041626,-0.8886666893959045,0.24135209619998932
3918.0,-14.299239158630371,6.472264289855957,0.6495632529258728,-24.78209114074707,-30.64360237121582,0.21601498126983643,-2.9030189514160156,-0.959142804145813,0.1978231817483902
3919.0,-14.299302101135254,7.473818778991699,0.6472081542015076,-23.91883087158203,-29.691862106323242,0.34908556938171387,-3.842363119125366,-1.0438700914382935,0.31477293372154236
3920.0,-14.299385070800781,8.511959075927734,0.6450914740562439,-22.811721801757812,-28.233030319213867,0.056984301656484604,-4.453886032104492,-0.8382425904273987,0.29211318492889404
3921.0,-14.29948616027832,9.588027000427246,0.6433911323547363,-21.784944534301758,-27.156049728393555,-0.3175220787525177,-5.406011581420898,-0.667651891708374,0.4072064757347107
3922.0,-14.299614906311035,10.703413009643555,0.6422808170318604,-20.531526565551758,-24.609498977661133,0.199041485786438,-6.268195152282715,-0.6020887494087219,0.4181146025657654
3923.0,-14.299760818481445,11.859559059143066,0.6419190764427185,-19.66391944885254,-22.728960037231445,-0.36444786190986633,-6.750881671905518,-0.4971577525138855,0.3789120316505432
3924.0,-14.299925804138184,13.057961463928223,0.6424522995948792,-18.323585510253906,-19.96800422668457,-0.05429350957274437,-7.369720458984375,-0.39574339985847473,0.4806042015552521
3925.0,-14.300107955932617,14.300162315368652,0.643998384475708,-17.18342399597168,-17.420270919799805,-0.10640920698642731,-7.720696449279785,-0.343988835811615,0.3011472523212433
3926.0,-14.300299644470215,15.587761878967285,0.6466553211212158,-15.704758644104004,-14.698038101196289,0.10204339772462845,-8.037651062011719,-0.27396664023399353,0.36549705266952515
3927.0,-14.300504684448242,16.922422409057617,0.6504976153373718,-14.60600471496582,-12.068941116333008,-0.21891914308071136,-8.109169006347656,-0.1989818811416626,0.2942521274089813
3928.0,-14.300713539123535,18.305862426757812,0.6555725932121277,-13.316550254821777,-9.50442886352539,-0.004048094153404236,-8.048622131347656,-0.22901318967342377,0.3382816016674042
3929.0,-14.300926208496094,19.739858627319336,0.6619046330451965,-12.098326683044434,-6.897640228271484,-0.16975665092468262,-7.942950248718262,-0.18870815634727478,0.3060583770275116
3930.0,-14.301139831542969,21.226259231567383,0.6694902777671814,-10.722504615783691,-4.599869251251221,0.10714710503816605,-7.744076251983643,-0.13928283751010895,0.3600716292858124
3931.0,-14.30135440826416,22.76697540283203,0.6783077716827393,-9.646011352539062,-2.5002944469451904,-0.27411046624183655,-7.580948352813721,-0.1433509737253189,0.2769820988178253
3932.0,-14.301568984985352,24.363985061645508,0.688313364982605,-8.238933563232422,-0.3340998888015747,0.21161629259586334,-7.2536702156066895,-0.11805485934019089,0.3288150727748871
3933.0,-14.301782608032227,26.01934814453125,0.6994338631629944,-7.26615047454834,1.5865683555603027,-0.2778582274913788,-7.079792499542236,-0.16401976346969604,0.19129028916358948
3934.0,-14.302000999450684,27.735197067260742,0.7115749716758728,-5.9092864990234375,3.60585618019104,0.15066491067409515,-6.83890438079834,-0.11892389506101608,0.35959646105766296
3935.0,-14.302217483520508,29.513734817504883,0.7246002554893494,-4.812057971954346,5.491560935974121,-0.3546929657459259,-6.538296222686768,-0.04904143512248993,0.14457541704177856
3936.0,-14.302437782287598,31.35726547241211,0.7383409142494202,-3.2340142726898193,7.596302509307861,0.3081367015838623,-6.247838020324707,-0.11497605592012405,0.42391249537467957
3937.0,-14.302657127380371,33.26815414428711,0.7525745034217834,-2.1334621906280518,9.696967124938965,-0.4181804656982422,-5.910800933837891,-0.11227677762508392,0.20387199521064758
3938.0,-14.302873611450195,35.24887466430664,0.7670297622680664,-0.45014286041259766,11.750914573669434,0.4052430987358093,-5.494656562805176,-0.07087615877389908,0.5369306206703186
3939.0,-14.303093910217285,37.30197525024414,0.7813653349876404,0.7040166854858398,13.793068885803223,-0.5474764704704285,-5.204112529754639,-0.056608136743307114,0.18204472959041595
3940.0,-14.303313255310059,39.43010330200195,0.7951650023460388,2.652576208114624,16.25547981262207,0.6728978753089905,-4.637962341308594,0.016142144799232483,0.5798190236091614
3941.0,-14.303521156311035,41.63602066040039,0.8078895211219788,3.7365000247955322,18.693361282348633,-0.628018319606781,-4.111430644989014,0.034131165593862534,0.0869026705622673
3942.0,-14.30372428894043,43.92257308959961,0.818888783454895,5.855644702911377,21.680011749267578,0.8224840760231018,-3.518261194229126,0.009416621178388596,0.654335081577301
3943.0,-14.303915023803711,46.292720794677734,0.8272977471351624,6.975212574005127,24.87334442138672,-0.8412462472915649,-2.8375487327575684,0.0953517034649849,0.08667662739753723
3944.0,-14.304094314575195,48.74953842163086,0.8320260047912598,9.509048461914062,28.789718627929688,0.9904431104660034,-2.126927137374878,0.08958064764738083,0.5670157074928284
4121.0,-13.057098388671875,5.505988121032715,0.6594008803367615,-30.915010452270508,-35.10929489135742,-1.5089476108551025,-1.2178664207458496,-1.1543980836868286,0.41987675428390503
4122.0,-13.05712890625,6.472226142883301,0.6557121276855469,-30.12374496459961,-33.560428619384766,-0.00822026189416647,-1.9057501554489136,-1.0456215143203735,0.6349668502807617
4123.0,-13.057172775268555,7.473755836486816,0.6520500779151917,-29.171003341674805,-33.34266662597656,-0.6442518830299377,-2.577070951461792,-1.042600154876709,0.46067577600479126
4124.0,-13.057234764099121,8.51186466217041,0.6486375331878662,-27.570966720581055,-32.02061080932617,0.02799772098660469,-3.8887784481048584,-0.9247512817382812,0.4954378306865692
4125.0,-13.057321548461914,9.587905883789062,0.6456916332244873,-26.180265426635742,-29.28933334350586,0.19541074335575104,-5.004087924957275,-0.7192140221595764,0.48790380358695984
4126.0,-13.057435035705566,10.70327091217041,0.6434211730957031,-24.570829391479492,-27.45406723022461,-0.1450597643852234,-5.671818733215332,-0.6911521553993225,0.554111897945404
4127.0,-13.057570457458496,11.859399795532227,0.6420131325721741,-22.68614387512207,-24.28022575378418,0.16768404841423035,-6.5853729248046875,-0.5910276770591736,0.5073337554931641
4128.0,-13.05772590637207,13.05778694152832,0.6416246891021729,-21.28266716003418,-21.586273193359375,0.054479267448186874,-6.946677207946777,-0.4539509415626526,0.5743922591209412
4129.0,-13.057899475097656,14.299980163574219,0.6423855423927307,-19.641599655151367,-18.54718017578125,0.01766139827668667,-7.482600688934326,-0.34836480021476746,0.4181988537311554
4130.0,-13.058084487915039,15.587578773498535,0.6443960666656494,-18.178361892700195,-15.682229995727539,0.08522707968950272,-7.560641288757324,-0.2479524463415146,0.29474928975105286
4131.0,-13.058280944824219,16.922239303588867,0.6477258205413818,-16.475534439086914,-12.560516357421875,0.07850274443626404,-7.757420063018799,-0.2960989773273468,0.3376166820526123
4132.0,-13.05848503112793,18.305681228637695,0.6524186134338379,-15.120359420776367,-9.880194664001465,0.1638088971376419,-7.640480995178223,-0.2864795923233032,0.4129426181316376
4133.0,-13.058686256408691,19.739683151245117,0.6584903597831726,-13.672898292541504,-7.229705333709717,-0.07823622971773148,-7.510287761688232,-0.19643880426883698,0.2457047700881958
4134.0,-13.058892250061035,21.226089477539062,0.6659292578697205,-12.113648414611816,-4.768063068389893,0.19580553472042084,-7.34812593460083,-0.10920047014951706,0.3234749138355255
4135.0,-13.059098243713379,22.76681137084961,0.6747009754180908,-10.878862380981445,-2.6143338680267334,-0.13985110819339752,-7.216056823730469,-0.11553855240345001,0.26575419306755066
4136.0,-13.059301376342773,24.363828659057617,0.684752881526947,-9.437426567077637,-0.43679288029670715,0.19255127012729645,-6.879485130310059,-0.10442525893449783,0.3861331641674042
4137.0,-13.059502601623535,26.019197463989258,0.6960020661354065,-8.159564018249512,1.7484742403030396,-0.19372962415218353,-6.683959007263184,-0.14153766632080078,0.20017024874687195
4138.0,-13.059708595275879,27.735050201416016,0.7083420753479004,-6.63045072555542,3.7312428951263428,0.28973832726478577,-6.417934894561768,-0.18919503688812256,0.42929938435554504
4139.0,-13.05991268157959,29.51359748840332,0.7216286063194275,-5.44893741607666,5.6713786125183105,-0.3170455992221832,-6.137882709503174,-0.0962836816906929,0.211846724152565
4140.0,-13.060118675231934,31.357131958007812,0.7356811165809631,-3.6955034732818604,7.825908184051514,0.4331333637237549,-5.851863384246826,-0.05529021844267845,0.3794276714324951
4141.0,-13.060324668884277,33.26803207397461,0.7502670884132385,-2.4343268871307373,10.022400856018066,-0.3093336820602417,-5.544092178344727,-0.11319439113140106,0.16533946990966797
4142.0,-13.060529708862305,35.24876022338867,0.7651023268699646,-0.7321582436561584,12.116942405700684,0.5248475670814514,-5.1430816650390625,-0.08664597570896149,0.5300939083099365
4143.0,-13.060731887817383,37.301876068115234,0.7798318862915039,0.38522836565971375,14.143423080444336,-0.5242148041725159,-4.862611770629883,-0.02621401846408844,0.1915779411792755
4144.0,-13.06093692779541,39.43001174926758,0.7940248847007751,2.3825759887695312,16.63651466369629,0.5634205937385559,-4.330079555511475,-0.018228663131594658,0.6162315011024475
4145.0,-13.06113338470459,41.63594436645508,0.8071213364601135,3.5871386528015137,19.118059158325195,-0.7423515319824219,-3.826817035675049,0.017622360959649086,0.1216098740696907
4146.0,-13.061318397521973,43.92251205444336,0.8184486031532288,5.976142406463623,22.314743041992188,0.838936448097229,-3.2909717559814453,-0.002002858556807041,0.6811599135398865
4147.0,-13.06149959564209,46.29269027709961,0.82711261510849,7.15128231048584,25.5985107421875,-0.9494057297706604,-2.6532270908355713,0.027177508920431137,0.1964111477136612
4148.0,-13.06166934967041,48.74952697753906,0.8319859504699707,9.74821949005127,29.591047286987305,0.9904571771621704,-1.9769201278686523,0.05997925624251366,0.6531195640563965
4325.0,-11.858922958374023,5.5060625076293945,0.6700305938720703,-44.286781311035156,-39.71077346801758,0.9955993890762329,3.1246910095214844,-3.634328603744507,1.3035856485366821
4326.0,-11.858880996704102,6.472259044647217,0.6646146774291992,-38.40082931518555,-40.32133102416992,-0.5096104741096497,1.0834332704544067,-2.331775665283203,0.8388887643814087
4327.0,-11.858880043029785,7.473731517791748,0.6592726707458496,-34.4160041809082,-37.80593490600586,0.29731765389442444,-1.7225009202957153,-1.5259945392608643,0.9353283643722534
4328.0,-11.858918190002441,8.51180362701416,0.654235303401947,-32.56668472290039,-34.52718734741211,0.03463180363178253,-2.977931022644043,-1.1684030294418335,0.6199347376823425
4329.0,-11.85898494720459,9.587814331054688,0.6497573852539062,-30.823213577270508,-33.412837982177734,-0.4727117717266083,-3.691894292831421,-0.9843893647193909,0.5978996753692627
4330.0,-11.859070777893066,10.70314884185791,0.6460829377174377,-28.153287887573242,-29.464967727661133,0.3236580193042755,-5.228834629058838,-0.7502899765968323,0.7226294875144958
4331.0,-11.859190940856934,11.859259605407715,0.6434231400489807,-26.47419548034668,-26.791139602661133,-0.31094303727149963,-5.774077892303467,-0.6264209747314453,0.5622374415397644
4332.0,-11.859331130981445,13.05763053894043,0.6419467329978943,-24.029970169067383,-23.049236297607422,0.13750982284545898,-6.6495585441589355,-0.5229012370109558,0.5746398568153381
4333.0,-11.859491348266602,14.29981803894043,0.6417863368988037,-22.424257278442383,-19.869850158691406,-0.26753923296928406,-6.8952226638793945,-0.39275792241096497,0.5052772164344788
4334.0,-11.859665870666504,15.587410926818848,0.6430379748344421,-20.248647689819336,-16.379899978637695,0.08512094616889954,-7.158336162567139,-0.19462428987026215,0.4607181251049042
4335.0,-11.859853744506836,16.92207145690918,0.6457631587982178,-18.752553939819336,-13.453513145446777,-0.21624551713466644,-7.207795143127441,-0.19489671289920807,0.480402410030365
4336.0,-11.860045433044434,18.305513381958008,0.6499969363212585,-16.715829849243164,-10.30434513092041,0.13781289756298065,-7.2403035163879395,-0.26818105578422546,0.4384114444255829
4337.0,-11.860236167907715,19.73952293395996,0.6557413935661316,-15.27808952331543,-7.689333915710449,-0.24354149401187897,-7.026798725128174,-0.25269100069999695,0.29580655694007874
4338.0,-11.860428810119629,21.225934982299805,0.6629758477210999,-13.436002731323242,-5.012295246124268,0.07798542827367783,-6.896225929260254,-0.14897483587265015,0.4296870231628418
4339.0,-11.860620498657227,22.766660690307617,0.6716504096984863,-11.958136558532715,-2.7486023902893066,-0.233886256814003,-6.71376895904541,-0.0924157202243805,0.24676021933555603
4340.0,-11.860811233520508,24.363679885864258,0.681699275970459,-10.211359977722168,-0.3850099444389343,0.2092822641134262,-6.409485340118408,-0.09428299218416214,0.3833222985267639
4341.0,-11.861001014709473,26.019060134887695,0.6930299997329712,-8.85866928100586,1.8739862442016602,-0.25620245933532715,-6.211658477783203,-0.08042916655540466,0.19466713070869446
4342.0,-11.86119270324707,27.734922409057617,0.7055221796035767,-7.216629981994629,3.817718029022217,0.29524579644203186,-6.014684677124023,-0.10773693770170212,0.4522440731525421
4343.0,-11.861383438110352,29.51347541809082,0.7190223336219788,-5.914511680603027,5.844959735870361,-0.28336915373802185,-5.731594085693359,-0.11157168447971344,0.2870527505874634
4344.0,-11.861576080322266,31.357013702392578,0.7333393692970276,-4.146557331085205,8.025890350341797,0.36370161175727844,-5.459282398223877,-0.04263073205947876,0.3833737075328827
4345.0,-11.86176872253418,33.26792526245117,0.748229444026947,-2.984102249145508,10.117806434631348,-0.46788260340690613,-5.169543743133545,-0.06273067742586136,0.12906514108181
4346.0,-11.861957550048828,35.2486572265625,0.7633970975875854,-1.1737165451049805,12.288375854492188,0.3689637780189514,-4.777419567108154,-0.07087802141904831,0.45328667759895325
4347.0,-11.862146377563477,37.30177688598633,0.7784742712974548,0.2139742374420166,14.489897727966309,-0.5742387175559998,-4.5086750984191895,-0.01895829103887081,0.13270121812820435
4348.0,-11.862334251403809,39.429935455322266,0.7930150032043457,2.3822927474975586,17.125200271606445,0.653073251247406,-4.040899276733398,-0.01711242087185383,0.5994057059288025
4349.0,-11.862517356872559,41.63587951660156,0.8064407110214233,3.478986978530884,19.547330856323242,-0.7675624489784241,-3.5467453002929688,0.03397376835346222,0.1489490121603012
4350.0,-11.862689971923828,43.92245864868164,0.8180580735206604,5.846696853637695,22.771835327148438,0.7790393233299255,-3.0453720092773438,0.02762874774634838,0.6710131168365479
4351.0,-11.862855911254883,46.29265594482422,0.8269481658935547,7.196166515350342,26.21162223815918,-1.0134629011154175,-2.4903628826141357,0.028768043965101242,0.19699861109256744
4352.0,-11.863014221191406,48.749515533447266,0.831950306892395,9.995281219482422,30.348573684692383,1.0310219526290894,-1.8508235216140747,0.05218416824936867,0.6679239869117737
4529.0,-10.703194618225098,5.506274700164795,0.6847368478775024,-59.510135650634766,-54.56781768798828,-1.227001667022705,7.899829864501953,-3.4371323585510254,1.9258230924606323
4530.0,-10.703032493591309,6.472366809844971,0.6767497658729553,-52.729854583740234,-48.022735595703125,-0.08967269957065582,4.270279407501221,-4.0894389152526855,1.9741286039352417
4531.0,-10.702935218811035,7.473785400390625,0.6690075397491455,-46.21290588378906,-44.27381134033203,-1.2041140794754028,2.1198904514312744,-3.3602044582366943,1.7782973051071167
4532.0,-10.702903747558594,8.511795043945312,0.6618480086326599,-39.50961685180664,-41.42059326171875,-0.29741039872169495,-0.4956813156604767,-2.013970136642456,1.3590993881225586
4533.0,-10.702924728393555,9.587752342224121,0.6554880142211914,-34.86451721191406,-35.69839859008789,0.27588292956352234,-3.2398629188537598,-1.2225607633590698,0.8048614263534546
4534.0,-10.702983856201172,10.703055381774902,0.650141716003418,-32.70045852661133,-33.08968734741211,-0.3764108419418335,-3.7635464668273926,-0.8998745679855347,0.84844970703125
4535.0,-10.703073501586914,11.859136581420898,0.6460182666778564,-29.140186309814453,-28.426090240478516,0.35115522146224976,-5.323583126068115,-0.7771182060241699,0.6563530564308167
4536.0,-10.703197479248047,13.057493209838867,0.6432885527610779,-27.22791862487793,-24.822587966918945,-0.10194753855466843,-5.767082214355469,-0.4544467628002167,0.7232711315155029
4537.0,-10.703339576721191,14.299666404724121,0.6420801281929016,-24.370210647583008,-20.75006866455078,0.09469331055879593,-6.329380035400391,-0.43700411915779114,0.52939373254776
4538.0,-10.703499794006348,15.587258338928223,0.6424717903137207,-22.343412399291992,-17.120864868164062,0.13302697241306305,-6.610870361328125,-0.30234917998313904,0.581601083278656
4539.0,-10.703670501708984,16.921918869018555,0.6445150971412659,-20.239336013793945,-13.980928421020508,-0.09982406347990036,-6.713363170623779,-0.227258563041687,0.6358787417411804
4540.0,-10.703848838806152,18.305360794067383,0.648225724697113,-18.136884689331055,-10.654873847961426,0.11604916304349899,-6.708981037139893,-0.2154560089111328,0.5050534605979919
4541.0,-10.70402717590332,19.739377975463867,0.6535875797271729,-16.18922233581543,-7.7641143798828125,0.06616675108671188,-6.482276916503906,-0.2566433846950531,0.3497712314128876
4542.0,-10.704206466674805,21.225791931152344,0.6605668663978577,-14.433961868286133,-5.0844197273254395,0.18546852469444275,-6.3623857498168945,-0.20895719528198242,0.44910410046577454
4543.0,-10.704383850097656,22.766525268554688,0.6690993905067444,-12.80250358581543,-2.7480642795562744,-0.15967144072055817,-6.169802665710449,-0.06607956439256668,0.2286578118801117
4544.0,-10.704560279846191,24.363554000854492,0.679105281829834,-10.953041076660156,-0.3045726716518402,0.3634621500968933,-5.942828178405762,-0.11746279895305634,0.372727632522583
4545.0,-10.70473575592041,26.018938064575195,0.6904768347740173,-9.64962100982666,1.8504096269607544,-0.27538684010505676,-5.761054515838623,-0.16990147531032562,0.23756039142608643
4546.0,-10.704912185668945,27.734804153442383,0.7030801177024841,-7.902073383331299,3.849973440170288,0.2792915999889374,-5.575514793395996,-0.09944993257522583,0.41490739583969116
4547.0,-10.705087661743164,29.513364791870117,0.7167526483535767,-6.447349548339844,5.962381362915039,-0.28916192054748535,-5.297933578491211,-0.05755215138196945,0.25946518778800964
4548.0,-10.705266952514648,31.35690689086914,0.7312927842140198,-4.594338893890381,8.208857536315918,0.34767162799835205,-5.0574116706848145,-0.033898260444402695,0.4495987892150879
4549.0,-10.705443382263184,33.267826080322266,0.7464442253112793,-3.2334916591644287,10.362648963928223,-0.40221598744392395,-4.819681167602539,-0.03669467568397522,0.2174384742975235
4550.0,-10.705618858337402,35.24856948852539,0.7618995904922485,-1.2916436195373535,12.645330429077148,0.5487785935401917,-4.403513431549072,-0.03492329642176628,0.45085546374320984
4551.0,-10.705789566040039,37.30169677734375,0.7772802710533142,0.013633386231958866,14.808913230895996,-0.5701960921287537,-4.11704683303833,-0.03931400552392006,0.11019235104322433
4552.0,-10.705962181091309,39.429866790771484,0.7921266555786133,2.313924789428711,17.528167724609375,0.7074060440063477,-3.7150423526763916,-0.03378094732761383,0.5045459270477295
4553.0,-10.706130027770996,41.63581466674805,0.8058425188064575,3.568228006362915,20.036771774291992,-0.7391923666000366,-3.2552831172943115,-0.003772128839045763,0.09624792635440826
4554.0,-10.706290245056152,43.92240905761719,0.8177161812782288,6.091825485229492,23.363065719604492,0.9530639052391052,-2.7777650356292725,0.03598088398575783,0.6327493786811829
4555.0,-10.706442832946777,46.292625427246094,0.8268051147460938,7.466587543487549,26.878204345703125,-0.8628474473953247,-2.2733376026153564,0.07618144154548645,0.07942699640989304
4556.0,-10.706587791442871,48.749507904052734,0.83191978931427,10.237221717834473,31.053407669067383,1.0844203233718872,-1.6969701051712036,0.051956262439489365,0.5969318747520447
4733.0,-9.588482856750488,5.506658554077148,0.7049782276153564,-73.74736785888672,-52.77960968017578,0.6066824793815613,14.847112655639648,-4.482116222381592,2.4210469722747803
4734.0,-9.588162422180176,6.4727091789245605,0.6929793357849121,-69.04256439208984,-58.856109619140625,0.2968357801437378,14.385702133178711,-3.265108346939087,2.5740413665771484
4735.0,-9.587904930114746,7.473979949951172,0.6816993951797485,-59.94094467163086,-57.92205047607422,1.1602238416671753,9.391182899475098,-4.040588855743408,3.114368200302124
4736.0,-9.587729454040527,8.511862754821777,0.6715390682220459,-48.817752838134766,-48.306983947753906,-0.4997556805610657,2.425084114074707,-2.787187099456787,2.5409390926361084
4737.0,-9.587668418884277,9.587740898132324,0.6627585887908936,-41.952449798583984,-42.33274841308594,-0.779846727848053,0.17118126153945923,-2.0073482990264893,2.003502130508423
4738.0,-9.58767318725586,10.702987670898438,0.6554288268089294,-35.3944091796875,-35.396297454833984,0.16690851747989655,-3.2676069736480713,-0.8351136445999146,1.2670763731002808
4739.0,-9.58773136138916,11.859039306640625,0.649630606174469,-33.043697357177734,-31.053585052490234,-0.5659354329109192,-3.8797411918640137,-0.6694201827049255,0.902866780757904
4740.0,-9.587825775146484,13.057372093200684,0.6454949975013733,-28.85362434387207,-26.22728157043457,0.3991038203239441,-5.200311183929443,-0.420748770236969,0.9437046051025391
4741.0,-9.587947845458984,14.29953670501709,0.6431235671043396,-26.936904907226562,-21.929277420043945,-0.47446659207344055,-5.604187488555908,-0.39086291193962097,0.6099569797515869
4742.0,-9.588088035583496,15.58712100982666,0.6425719857215881,-23.875749588012695,-17.93621063232422,0.28980639576911926,-5.996318817138672,-0.3127950131893158,0.5419597625732422
4743.0,-9.588242530822754,16.921781539916992,0.6438689231872559,-21.97869873046875,-14.537697792053223,-0.3775370717048645,-6.0689849853515625,-0.23194442689418793,0.6021339893341064
4744.0,-9.58840274810791,18.30523109436035,0.6470074653625488,-19.335142135620117,-10.925209999084473,0.234328955411911,-6.046168327331543,-0.15642379224300385,0.4688799977302551
4745.0,-9.588566780090332,19.73924446105957,0.6519469618797302,-17.49195671081543,-8.094047546386719,-0.2502131760120392,-5.870579719543457,-0.1433945745229721,0.32466021180152893
4746.0,-9.588729858398438,21.225664138793945,0.6586348414421082,-15.370469093322754,-5.344489574432373,0.1101575493812561,-5.76771354675293,-0.1717069000005722,0.3891453146934509
4747.0,-9.58889102935791,22.766403198242188,0.6669912934303284,-13.659432411193848,-2.781003713607788,-0.18165579438209534,-5.626707077026367,-0.0143567631021142,0.2448481172323227
4748.0,-9.589054107666016,24.363435745239258,0.676920473575592,-11.707901000976562,-0.37686479091644287,0.28449201583862305,-5.4340057373046875,-0.06984717398881912,0.33875772356987
4749.0,-9.589214324951172,26.018829345703125,0.6882992386817932,-10.1303129196167,1.8877850770950317,-0.33237242698669434,-5.258321285247803,-0.13935057818889618,0.28891587257385254
4750.0,-9.589377403259277,27.734699249267578,0.7009806632995605,-8.248787879943848,3.989764928817749,0.3318745195865631,-5.073902130126953,-0.08872503787279129,0.39734750986099243
4751.0,-9.58953857421875,29.513263702392578,0.7147894501686096,-6.896579742431641,6.072563648223877,-0.35218608379364014,-4.835775375366211,-0.05672531574964523,0.20857644081115723
4752.0,-9.589698791503906,31.356815338134766,0.7295151352882385,-4.961951732635498,8.371024131774902,0.38181549310684204,-4.605989456176758,-0.044373638927936554,0.4547366797924042
4753.0,-9.589859962463379,33.26773452758789,0.7448891997337341,-3.564479351043701,10.501997947692871,-0.4987594783306122,-4.394887447357178,-0.05071130022406578,0.2704685926437378
4754.0,-9.590020179748535,35.24848556518555,0.7605934143066406,-1.4403828382492065,12.902925491333008,0.5596047043800354,-4.01896858215332,-0.0481669083237648,0.5201923251152039
4755.0,-9.590178489685059,37.30162048339844,0.7762378454208374,-0.14877355098724365,15.096473693847656,-0.5848684310913086,-3.759601593017578,-0.010665328241884708,0.22239528596401215
4756.0,-9.590332984924316,39.4297981262207,0.7913500070571899,2.176788568496704,17.84539031982422,0.6825932860374451,-3.3745079040527344,0.06305450201034546,0.5336403846740723
4757.0,-9.590484619140625,41.63576889038086,0.8053196668624878,3.561939239501953,20.419923782348633,-0.7898818254470825,-2.9534075260162354,0.033487919718027115,0.09818518906831741
4758.0,-9.590629577636719,43.922367095947266,0.8174171447753906,6.097525596618652,23.727176666259766,0.8331283926963806,-2.529836893081665,-0.0357053242623806,0.6222359538078308
4759.0,-9.590767860412598,46.292598724365234,0.826680064201355,7.512248516082764,27.312360763549805,-1.0078128576278687,-2.066782236099243,0.040053900331258774,0.06905201077461243
4760.0,-9.590903282165527,48.74949645996094,0.8318930268287659,10.415453910827637,31.62742805480957,1.0637426376342773,-1.5459147691726685,0.06326516717672348,0.6070315837860107
4937.0,-8.514153480529785,5.50764799118042,0.734613299369812,-102.15864562988281,-90.245849609375,-1.5570429563522339,10.013676643371582,-6.991852760314941,1.4728028774261475
4938.0,-8.512870788574219,6.473235607147217,0.7147635221481323,-86.14501953125,-74.74340057373047,-1.9166491031646729,19.858457565307617,-7.243597984313965,3.7907979488372803
4939.0,-8.512321472167969,7.474333763122559,0.6978795528411865,-67.69603729248047,-64.8750228881836,-2.0520951747894287,13.227889060974121,-2.893272638320923,2.3235909938812256
4940.0,-8.51198673248291,8.512064933776855,0.6835094094276428,-61.090576171875,-61.463356018066406,1.1928471326828003,10.334355354309082,-3.417987585067749,3.364755392074585
4941.0,-8.511778831481934,9.587796211242676,0.6714867949485779,-47.613582611083984,-49.23604965209961,-0.34665611386299133,2.375215768814087,-2.4956159591674805,2.888254404067993
4942.0,-8.511707305908203,10.702963829040527,0.6617341637611389,-40.8905143737793,-39.71607971191406,-0.1529970020055771,-0.5549988150596619,-1.4432145357131958,1.9660321474075317
4943.0,-8.51171588897705,11.858969688415527,0.6540513038635254,-34.34280014038086,-32.94984817504883,-0.01474697794765234,-3.1400394439697266,-0.5665081143379211,0.9321942329406738
4944.0,-8.51177978515625,13.057279586791992,0.648379385471344,-31.911739349365234,-27.867420196533203,-0.06689070910215378,-4.123566150665283,-0.41782423853874207,0.9229555130004883
4945.0,-8.51187801361084,14.29942512512207,0.6447558403015137,-28.146894454956055,-22.925947189331055,-0.018061725422739983,-4.70087194442749,-0.4050084948539734,0.7689806222915649
4946.0,-8.511996269226074,15.587004661560059,0.6432027816772461,-25.455705642700195,-18.465959548950195,0.1930113136768341,-5.235754489898682,-0.21643641591072083,0.6194667816162109
4947.0,-8.512130737304688,16.921663284301758,0.6437100768089294,-22.911972045898438,-14.848852157592773,-0.05274679511785507,-5.277127742767334,-0.21478819847106934,0.534336507320404
4948.0,-8.512272834777832,18.30511474609375,0.6462417244911194,-20.513900756835938,-11.248064041137695,0.03494768962264061,-5.355794906616211,-0.1508469581604004,0.4446236491203308
4949.0,-8.512419700622559,19.739133834838867,0.650733232498169,-18.256376266479492,-8.16550350189209,0.014829182997345924,-5.23723030090332,-0.12300564348697662,0.29605552554130554
4950.0,-8.512564659118652,21.225555419921875,0.6571072936058044,-16.227691650390625,-5.5181474685668945,0.06768274307250977,-5.145930767059326,-0.12278074771165848,0.40339380502700806
4951.0,-8.512710571289062,22.766298294067383,0.6652674078941345,-14.204222679138184,-2.8156931400299072,-0.04762345552444458,-5.038411617279053,-0.0466725155711174,0.25766631960868835
4952.0,-8.512856483459473,24.363340377807617,0.6750963926315308,-12.310355186462402,-0.36075836420059204,0.12986145913600922,-4.874744892120361,-0.06434758752584457,0.3376331031322479
4953.0,-8.5130033493042,26.018735885620117,0.6864587068557739,-10.683493614196777,1.906048059463501,-0.18504105508327484,-4.694244861602783,-0.07413336634635925,0.3276097774505615
4954.0,-8.51314926147461,27.734615325927734,0.6991910338401794,-8.849884986877441,4.017542362213135,0.2572424113750458,-4.5428595542907715,-0.06974425911903381,0.42497342824935913
4955.0,-8.51329517364502,29.513181686401367,0.7131052017211914,-7.327549457550049,6.127120494842529,-0.32482755184173584,-4.329433441162109,-0.10624915361404419,0.26536157727241516
4956.0,-8.513440132141113,31.35673713684082,0.7279834747314453,-5.28518533706665,8.534777641296387,0.4142844080924988,-4.134521484375,-0.04839872568845749,0.4455433487892151
4957.0,-8.51358699798584,33.26766586303711,0.7435445189476013,-3.8835129737854004,10.636277198791504,-0.4932238459587097,-3.9376025199890137,-0.05378120392560959,0.18914836645126343
4958.0,-8.513731956481934,35.248416900634766,0.7594613432884216,-1.7510128021240234,13.012979507446289,0.467417448759079,-3.600393295288086,-0.08066751807928085,0.548069417476654
4959.0,-8.513871192932129,37.30155944824219,0.7753333449363708,-0.19467686116695404,15.383016586303711,-0.5477721095085144,-3.381166458129883,-0.05348271131515503,0.2767592966556549
4960.0,-8.51401138305664,39.42973709106445,0.7906755805015564,2.183342695236206,18.195192337036133,0.7251467108726501,-3.0588178634643555,3.673448009067215e-05,0.6087532639503479
4961.0,-8.514145851135254,41.63571548461914,0.8048652410507202,3.4703328609466553,20.74004364013672,-0.7785911560058594,-2.678203582763672,0.013492376543581486,0.16607846319675446
4962.0,-8.514277458190918,43.92233657836914,0.8171566724777222,6.084630966186523,24.06657600402832,0.8067826628684998,-2.3010032176971436,-0.05508139356970787,0.7100633382797241
4963.0,-8.514403343200684,46.29256820678711,0.8265703916549683,7.691730976104736,27.819828033447266,-0.9173397421836853,-1.88105309009552,0.026518629863858223,0.19459520280361176
4964.0,-8.514525413513184,48.74948501586914,0.8318696022033691,10.615365028381348,32.172855377197266,1.13357412815094,-1.4111968278884888,0.08030014485120773,0.6592363715171814
5141.0,-7.4811553955078125,5.511533737182617,0.7820833921432495,-104.99842834472656,-100.95134735107422,1.8369444608688354,2.6111671924591064,-3.613189220428467,5.646259784698486
5142.0,-7.476798057556152,6.474959373474121,0.7461075782775879,-101.93341064453125,-97.91886901855469,4.6932291984558105,4.091854572296143,-3.2849366664886475,2.139634847640991
5143.0,-7.474888324737549,7.474964618682861,0.7185664176940918,-85.2558822631836,-85.31430053710938,-0.10922206193208694,19.127532958984375,-6.5686259269714355,6.658336162567139
5144.0,-7.474243640899658,8.512389183044434,0.6978397369384766,-64.23738861083984,-68.50074005126953,-2.113210916519165,13.305724143981934,-2.171332597732544,2.919285297393799
5145.0,-7.4738850593566895,9.58796215057373,0.6816053986549377,-57.260990142822266,-60.01363754272461,1.0626269578933716,8.991646766662598,-3.088874578475952,4.122242450714111
5146.0,-7.473689556121826,10.702986717224121,0.668846070766449,-43.98578643798828,-46.56344223022461,-1.3416975736618042,1.9373596906661987,-1.8144923448562622,3.3921091556549072
5147.0,-7.473637104034424,11.858924865722656,0.6590362191200256,-37.4049186706543,-34.57173156738281,0.4490557312965393,-2.0177500247955322,-0.9705944061279297,1.4394062757492065
5148.0,-7.473666667938232,13.057210922241211,0.6517329812049866,-32.90681076049805,-29.263303756713867,-0.4145185351371765,-2.7162225246429443,-0.31154704093933105,0.968104898929596
5149.0,-7.473731994628906,14.299338340759277,0.6468061804771423,-29.355653762817383,-23.89085578918457,0.34378522634506226,-4.043263912200928,-0.40507882833480835,0.8959513306617737
5150.0,-7.473831653594971,15.586907386779785,0.6442210674285889,-26.783924102783203,-19.16617774963379,-0.30422279238700867,-4.327225208282471,-0.08197981864213943,0.6753544807434082
5151.0,-7.473945617675781,16.921567916870117,0.6439206600189209,-23.982791900634766,-15.239717483520508,0.15507389605045319,-4.605699062347412,-0.1721254289150238,0.5855697989463806
5152.0,-7.474067687988281,18.305017471313477,0.6458340287208557,-21.4652099609375,-11.621682167053223,-0.171730175614357,-4.581878662109375,-0.09383228421211243,0.6136273741722107
5153.0,-7.474194049835205,19.739036560058594,0.6498691439628601,-18.9945125579834,-8.320530891418457,0.14556573331356049,-4.630988597869873,-0.1738877147436142,0.391340047121048
5154.0,-7.474323272705078,21.225461959838867,0.6559194922447205,-16.96639060974121,-5.624870777130127,-0.07579462975263596,-4.467532634735107,-0.09979785978794098,0.4782204031944275
5155.0,-7.474452018737793,22.76620864868164,0.6638719439506531,-14.820076942443848,-2.9628639221191406,-0.014905625022947788,-4.395115375518799,-0.05793098360300064,0.2660089433193207
5156.0,-7.474581718444824,24.363252639770508,0.673588216304779,-12.690796852111816,-0.26756343245506287,0.16127319633960724,-4.282253742218018,-0.019489889964461327,0.3572728633880615
5157.0,-7.474711894989014,26.01865005493164,0.6849157810211182,-11.033616065979004,1.9149130582809448,-0.15310437977313995,-4.200511455535889,-0.07646819949150085,0.34851357340812683
5158.0,-7.474842548370361,27.73453140258789,0.6976781487464905,-9.1588134765625,4.118957996368408,0.20021775364875793,-4.040806293487549,-0.06485197693109512,0.4330567717552185
5159.0,-7.474974632263184,29.513107299804688,0.711674153804779,-7.588973045349121,6.205488204956055,-0.3157027065753937,-3.8609673976898193,-0.09305360913276672,0.23978887498378754
5160.0,-7.475104808807373,31.356670379638672,0.7266764044761658,-5.570846080780029,8.627665519714355,0.3195185363292694,-3.6666829586029053,-0.0512331984937191,0.4950554370880127
5161.0,-7.4752349853515625,33.26759719848633,0.7423939108848572,-4.057796478271484,10.786125183105469,-0.4531586170196533,-3.5076043605804443,-0.048315826803445816,0.2174743115901947
5162.0,-7.4753618240356445,35.248355865478516,0.7584905028343201,-1.8517773151397705,13.222167015075684,0.5979318022727966,-3.197275400161743,-0.025799516588449478,0.5615427494049072
5163.0,-7.475486755371094,37.301509857177734,0.7745556235313416,-0.43300002813339233,15.542092323303223,-0.5554637312889099,-2.992591619491577,0.00370164611376822,0.2437162697315216
5164.0,-7.47560977935791,39.4296875,0.7900947332382202,1.9392259120941162,18.307527542114258,0.5547069907188416,-2.738868474960327,-0.0020466584246605635,0.6516265869140625
5165.0,-7.4757304191589355,41.63566970825195,0.8044742941856384,3.5406839847564697,21.09515380859375,-0.7287144064903259,-2.407398223876953,0.010240613482892513,0.1708233505487442
5166.0,-7.4758453369140625,43.92230224609375,0.8169330954551697,6.148283958435059,24.417213439941406,0.8303183913230896,-2.05325984954834,-0.005869556684046984,0.7354784607887268
5167.0,-7.475958824157715,46.292545318603516,0.826476514339447,7.703347206115723,28.177900314331055,-0.9545069932937622,-1.6758129596710205,0.035832345485687256,0.2575444281101227
5168.0,-7.4760661125183105,48.74947738647461,0.8318495750427246,10.706465721130371,32.598026275634766,1.1173421144485474,-1.2650853395462036,0.0575268529355526,0.6736932992935181
5345.0,-6.488461017608643,5.519933700561523,0.8577656745910645,-107.91566467285156,-106.82417297363281,-22.38429069519043,10.534308433532715,-22.282428741455078,17.424657821655273
5346.0,-6.479893207550049,6.479973316192627,0.7923716902732849,-106.377685546875,-106.25053405761719,-8.077476501464844,5.0999908447265625,-6.379949569702148,6.5711469650268555
5347.0,-6.474872589111328,7.476860523223877,0.7460693120956421,-98.01276397705078,-103.094970703125,3.7334847450256348,4.394324779510498,-2.7064061164855957,3.574138879776001
5348.0,-6.473133087158203,8.512924194335938,0.7146943807601929,-73.71031951904297,-86.1356201171875,-1.5723668336868286,19.487699508666992,-3.4190921783447266,6.948863506317139
5349.0,-6.472603797912598,9.588210105895996,0.6928557753562927,-58.428157806396484,-69.1727523803711,0.07725390791893005,14.191099166870117,-2.6245768070220947,3.453949451446533
5350.0,-6.47226619720459,10.703075408935547,0.6765522956848145,-47.50658416748047,-52.717708587646484,0.0328582264482975,3.9141123294830322,-1.9048737287521362,4.086597442626953
5351.0,-6.472160816192627,11.858919143676758,0.6643304824829102,-40.24559020996094,-38.6192626953125,-0.5447776317596436,0.850439190864563,-1.0337175130844116,2.448087692260742
5352.0,-6.472132682800293,13.057160377502441,0.6553393006324768,-33.564456939697266,-30.354373931884766,-0.14451450109481812,-2.1270363330841064,-0.539122998714447,1.1131752729415894
5353.0,-6.4721760749816895,14.299270629882812,0.6490983963012695,-30.699872970581055,-24.941974639892578,-0.012854443863034248,-3.1390721797943115,-0.2258192002773285,0.9805022478103638
5354.0,-6.472254753112793,15.586831092834473,0.6454858183860779,-27.451465606689453,-19.5643310546875,-0.1648874282836914,-3.61368989944458,-0.20908808708190918,0.8676490187644958
5355.0,-6.472347736358643,16.921483993530273,0.6443858742713928,-24.738954544067383,-15.61625862121582,0.1782352775335312,-3.7493057250976562,-0.10413896292448044,0.63730388879776
5356.0,-6.47244930267334,18.304933547973633,0.6456920504570007,-22.079084396362305,-11.849052429199219,-0.128290057182312,-3.876146078109741,-0.18496546149253845,0.6834474205970764
5357.0,-6.4725565910339355,19.738954544067383,0.6492785811424255,-19.627267837524414,-8.569957733154297,0.07255715876817703,-3.9666924476623535,-0.1073581725358963,0.41266992688179016
5358.0,-6.472667694091797,21.225385665893555,0.6550121903419495,-17.528196334838867,-5.698885917663574,-0.16497641801834106,-3.8916563987731934,-0.11206667125225067,0.48171666264533997
5359.0,-6.4727783203125,22.766130447387695,0.6627547740936279,-15.459737777709961,-3.0807223320007324,0.015587964095175266,-3.836555004119873,-0.03137689456343651,0.2998509407043457
5360.0,-6.472891807556152,24.363178253173828,0.6723518967628479,-13.356687545776367,-0.4212915301322937,0.08117023855447769,-3.7385995388031006,0.05355706810951233,0.34888526797294617
5361.0,-6.473006248474121,26.018583297729492,0.6836329698562622,-11.501107215881348,1.8579615354537964,-0.242989644408226,-3.6863248348236084,-0.0176747664809227,0.2900099456310272
5362.0,-6.473121166229248,27.734466552734375,0.6964107155799866,-9.400948524475098,4.228325366973877,0.285989910364151,-3.527839183807373,-0.06928694248199463,0.441449373960495
5363.0,-6.473236560821533,29.513044357299805,0.710469663143158,-7.783534049987793,6.3573808670043945,-0.11712472885847092,-3.4142491817474365,-0.06977570056915283,0.16903720796108246
5364.0,-6.473350524902344,31.356611251831055,0.7255719900131226,-5.771407604217529,8.76669692993164,0.35744768381118774,-3.224526882171631,-0.05197862163186073,0.47376513481140137
5365.0,-6.473465442657471,33.26753616333008,0.7414194345474243,-4.154407024383545,10.926070213317871,-0.3402652442455292,-3.0873169898986816,-0.04470939189195633,0.268351286649704
5366.0,-6.473578929901123,35.2483024597168,0.7576671242713928,-2.0817887783050537,13.281188011169434,0.43772977590560913,-2.8303160667419434,-0.03743462264537811,0.5505258440971375
5367.0,-6.473687171936035,37.301456451416016,0.7738961577415466,-0.5167390704154968,15.737465858459473,-0.48456770181655884,-2.6270720958709717,0.006288729142397642,0.2112342268228531
5368.0,-6.473793983459473,39.42964553833008,0.7896020412445068,1.9079458713531494,18.543922424316406,0.65872722864151,-2.382742166519165,0.01951230876147747,0.6453827023506165
5369.0,-6.4738993644714355,41.63563919067383,0.804142415523529,3.5146520137786865,21.38824462890625,-0.6408457159996033,-2.070647954940796,0.00600903807207942,0.1665256768465042
5370.0,-6.473999500274658,43.92227554321289,0.816743791103363,6.140605449676514,24.699857711791992,0.8142722845077515,-1.7865570783615112,0.02130642533302307,0.6950579285621643
5371.0,-6.474098205566406,46.292537689208984,0.8263970017433167,7.765514373779297,28.505281448364258,-0.945480465888977,-1.467360258102417,0.029049519449472427,0.18013715744018555
5372.0,-6.474193096160889,48.74947738647461,0.8318323493003845,10.765474319458008,32.927852630615234,1.0233124494552612,-1.1149252653121948,0.02080678753554821,0.6278100609779358
5549.0,-5.532924175262451,5.53311824798584,0.9699091911315918,-89.64995574951172,-90.85104370117188,-40.97543716430664,44.724327087402344,3.5417654514312744,-3.157074213027954
5550.0,-5.519840717315674,6.4885945320129395,0.8577412366867065,-107.16619873046875,-109.09834289550781,-21.71190071105957,10.596329689025879,-17.5250244140625,22.232572555541992
5551.0,-5.511455059051514,7.481232643127441,0.7820472717285156,-100.71406555175781,-104.88665008544922,1.9288060665130615,2.9265966415405273,-5.403561115264893,3.5827181339263916
5552.0,-5.507532119750977,8.514191627502441,0.7345241904258728,-89.42695617675781,-102.74095153808594,-1.1315959692001343,10.195999145507812,-2.125892400741577,7.267790794372559
5553.0,-5.506542682647705,9.588519096374512,0.7048391699790955,-51.98648452758789,-73.347900390625,-0.15815722942352295,14.187681198120117,-2.0982282161712646,4.522461414337158
5554.0,-5.506165504455566,10.703231811523438,0.6845166683197021,-53.99874496459961,-59.27695083618164,-0.5181832313537598,7.686557292938232,-1.805938482284546,3.333585500717163
5555.0,-5.5059614181518555,11.858956336975098,0.6697059869766235,-39.496585845947266,-44.370418548583984,0.5503828525543213,2.864013671875,-1.1965590715408325,3.8508381843566895
5556.0,-5.505890846252441,13.057129859924316,0.6589770317077637,-34.66714096069336,-30.758243560791016,-1.0403345823287964,-1.2848032712936401,-0.324137806892395,1.2035942077636719
5557.0,-5.505910873413086,14.299224853515625,0.6514666080474854,-30.446001052856445,-25.498369216918945,1.116033673286438,-2.175140380859375,-0.23439107835292816,0.9893645644187927
5558.0,-5.505969047546387,15.586774826049805,0.646860659122467,-28.23884391784668,-20.029380798339844,-0.860042154788971,-2.886373281478882,-0.07944265007972717,0.9599467515945435
5559.0,-5.50604248046875,16.921419143676758,0.6450009942054749,-24.93616485595703,-15.913442611694336,0.5279907584190369,-2.9520835876464844,-0.1133873388171196,0.4997609257698059
5560.0,-5.50612211227417,18.304868698120117,0.6457278728485107,-22.649913787841797,-12.210199356079102,-0.6697512269020081,-3.144487142562866,-0.12462802231311798,0.6060672402381897
5561.0,-5.506210803985596,19.738889694213867,0.6488918662071228,-19.690650939941406,-8.550736427307129,0.5590409636497498,-3.332340717315674,-0.029085669666528702,0.3355748653411865
5562.0,-5.506305694580078,21.225318908691406,0.6543257832527161,-17.84406852722168,-5.775036334991455,-0.31591132283210754,-3.2765085697174072,0.01492887083441019,0.4323195815086365
5563.0,-5.506401062011719,22.766069412231445,0.6618698239326477,-15.479605674743652,-2.8947787284851074,0.36585867404937744,-3.289174795150757,-0.02234528213739395,0.33203887939453125
5564.0,-5.506496429443359,24.363117218017578,0.671349287033081,-13.749183654785156,-0.5553013682365417,-0.17100821435451508,-3.1578729152679443,-0.0076021477580070496,0.4575958847999573
5565.0,-5.506593704223633,26.018522262573242,0.6825803518295288,-11.630545616149902,2.009441375732422,0.04762670397758484,-3.1593058109283447,-0.042009346187114716,0.32419654726982117
5566.0,-5.5066938400268555,27.734407424926758,0.6953615546226501,-9.759970664978027,4.189058303833008,0.11307680606842041,-3.0360376834869385,-0.0063597895205020905,0.4621603488922119
5567.0,-5.506793975830078,29.512989044189453,0.7094678282737732,-8.111801147460938,6.299319744110107,-0.25042760372161865,-2.9652786254882812,-0.024210942909121513,0.24376848340034485
5568.0,-5.506893634796143,31.356563568115234,0.7246504426002502,-6.060760021209717,8.776700019836426,0.1833578199148178,-2.7868402004241943,-0.03918096795678139,0.44276660680770874
5569.0,-5.506992816925049,33.26749038696289,0.7406043410301208,-4.353360652923584,10.958229064941406,-0.31433388590812683,-2.6903932094573975,-0.06993532180786133,0.2062036693096161
5570.0,-5.507089614868164,35.24825668334961,0.7569773197174072,-2.184654474258423,13.390267372131348,0.27164772152900696,-2.44958758354187,-0.06574184447526932,0.5062713623046875
5571.0,-5.507183074951172,37.30141830444336,0.7733435034751892,-0.4518411159515381,15.929152488708496,-0.44538453221321106,-2.247448682785034,-0.028093282133340836,0.19034388661384583
5572.0,-5.507275104522705,39.42961120605469,0.7891889214515686,1.9211541414260864,18.736948013305664,0.6235162615776062,-2.0471019744873047,0.0016509387642145157,0.5848022103309631
5573.0,-5.5073628425598145,41.635616302490234,0.8038639426231384,3.522346019744873,21.597366333007812,-0.6857456564903259,-1.7769957780838013,0.006308515090495348,0.16121946275234222
5574.0,-5.507449626922607,43.92225646972656,0.816584587097168,6.173517227172852,24.95176887512207,0.821891725063324,-1.547265887260437,0.007918360643088818,0.6804338097572327
5575.0,-5.507534503936768,46.29251480102539,0.8263301253318787,7.882678508758545,28.85251235961914,-0.824243426322937,-1.2678099870681763,0.023806365206837654,0.1636524200439453
5576.0,-5.507617473602295,48.749473571777344,0.8318176865577698,10.836313247680664,33.21720504760742,1.0005332231521606,-0.9519286751747131,0.04218732938170433,0.6308574676513672
5753.0,-4.611644268035889,5.551803112030029,1.10897958278656,14.004396438598633,-9.413666725158691,13.066972732543945,60.77670669555664,11.572879791259766,-22.806978225708008
5754.0,-4.593550205230713,6.500430107116699,0.9439391493797302,-90.95598602294922,-115.97308349609375,-51.95806884765625,37.98414993286133,-3.6122395992279053,8.821930885314941
5755.0,-4.582397937774658,7.487873077392578,0.8268513083457947,-102.03479766845703,-114.00685119628906,-19.712547302246094,5.4240498542785645,-11.237046241760254,19.911867141723633
5756.0,-4.576324939727783,8.516684532165527,0.7572258710861206,-91.42257690429688,-103.74951171875,7.416205883026123,0.8552679419517517,-0.31634804606437683,0.6517128944396973
5757.0,-4.574483871459961,9.588995933532715,0.7171273827552795,-60.84856414794922,-91.37937927246094,-3.5927815437316895,12.324380874633789,-2.572068929672241,11.197210311889648
5758.0,-4.574106216430664,10.703423500061035,0.6923533082008362,-51.892433166503906,-66.83789825439453,0.9596452713012695,13.89481258392334,-1.123806118965149,2.63446044921875
5759.0,-4.573780536651611,11.859009742736816,0.6749219298362732,-40.51402282714844,-48.491554260253906,-0.5137410163879395,2.611863374710083,-1.6374272108078003,5.079334259033203
5760.0,-4.573692798614502,13.057120323181152,0.6624523997306824,-34.72829818725586,-32.198482513427734,-0.4498409628868103,0.25283530354499817,0.10084421187639236,1.2404917478561401
5761.0,-4.57368803024292,14.299195289611816,0.6537516117095947,-31.033937454223633,-25.767427444458008,0.19309939444065094,-1.5921988487243652,-0.5081067681312561,1.09052574634552
5762.0,-4.573727130889893,15.586732864379883,0.6482252478599548,-28.108827590942383,-20.633630752563477,-0.16313065588474274,-1.8289930820465088,0.29504385590553284,0.7602733969688416
5763.0,-4.573780536651611,16.92137336730957,0.645668089389801,-25.116559982299805,-16.025232315063477,0.027991946786642075,-2.2008285522460938,-0.28044697642326355,0.5315296649932861
5764.0,-4.573843002319336,18.304819107055664,0.6458664536476135,-22.810850143432617,-12.532083511352539,0.03391042724251747,-2.459912061691284,0.07340529561042786,0.4890265464782715
5765.0,-4.573915958404541,19.738832473754883,0.6486472487449646,-20.45621681213379,-8.788805961608887,0.021967442706227303,-2.739774227142334,-0.22823213040828705,0.41941946744918823
5766.0,-4.5739922523498535,21.225265502929688,0.6538082957267761,-18.15998649597168,-5.979938983917236,0.037578035145998,-2.6380159854888916,0.0011118584079667926,0.4289478659629822
5767.0,-4.574070453643799,22.766019821166992,0.6611728072166443,-15.870561599731445,-2.9543514251708984,-0.0726218894124031,-2.7629170417785645,-0.17141956090927124,0.33970025181770325
5768.0,-4.574150562286377,24.363069534301758,0.6705441474914551,-13.851919174194336,-0.5744816660881042,0.17645898461341858,-2.6760711669921875,-0.07450448721647263,0.4834881126880646
5769.0,-4.574233531951904,26.018476486206055,0.6817269921302795,-12.088438987731934,1.9325493574142456,-0.2558533847332001,-2.7093827724456787,-0.12511305510997772,0.4228813350200653
5770.0,-4.574317455291748,27.73436164855957,0.6945065855979919,-9.909127235412598,4.258533954620361,0.2612592279911041,-2.551994562149048,0.09855251759290695,0.44926804304122925
5771.0,-4.574401378631592,29.512943267822266,0.7086485624313354,-8.126418113708496,6.434661388397217,-0.3255014717578888,-2.4816172122955322,0.06268321722745895,0.2860417664051056
5772.0,-4.574486255645752,31.35651969909668,0.7238941192626953,-5.960487365722656,8.930438041687012,0.41182947158813477,-2.313817024230957,-0.007074772380292416,0.47525686025619507
5773.0,-4.574570178985596,33.2674560546875,0.739933967590332,-4.487471103668213,11.003692626953125,-0.42123982310295105,-2.2297706604003906,-0.13719750940799713,0.23532821238040924
5774.0,-4.57465124130249,35.248226165771484,0.7564095854759216,-2.169879674911499,13.582259178161621,0.5753363966941833,-2.051490545272827,-0.057617660611867905,0.47724077105522156
5775.0,-4.5747294425964355,37.3013801574707,0.7728872299194336,-0.5900411009788513,16.03889274597168,-0.5173630118370056,-1.9309834241867065,-0.009583287872374058,0.16290034353733063
5776.0,-4.5748066902160645,39.42958068847656,0.7888475060462952,1.8636378049850464,18.900253295898438,0.7339878082275391,-1.723384141921997,0.052692778408527374,0.6241999268531799
5777.0,-4.574880123138428,41.63558578491211,0.8036341667175293,3.4522321224212646,21.748292922973633,-0.7845149636268616,-1.4648770093917847,0.11055785417556763,0.20201793313026428
5778.0,-4.574951648712158,43.922237396240234,0.8164535164833069,6.280410289764404,25.191001892089844,0.9317158460617065,-1.290077805519104,0.09346045553684235,0.6603122353553772
5779.0,-4.575023174285889,46.29250717163086,0.8262752890586853,7.828281402587891,29.014467239379883,-1.043496012687683,-1.0861186981201172,0.03824934735894203,0.20520129799842834
5780.0,-4.575093746185303,48.74945831298828,0.8318061232566833,10.922561645507812,33.488277435302734,1.1016435623168945,-0.7972111105918884,0.03692388907074928,0.7182902693748474
5957.0,-3.7196238040924072,5.574143409729004,1.2493590116500854,87.24575805664062,61.768699645996094,20.236249923706055,39.42094039916992,26.960338592529297,-32.96563720703125
5958.0,-3.6986958980560303,6.515407085418701,1.041830062866211,-7.8464460372924805,-66.9850845336914,-0.8946136832237244,53.049747467041016,6.383733749389648,-22.53590202331543
5959.0,-3.6852781772613525,7.495924949645996,0.8787307143211365,-98.29690551757812,-110.83253479003906,-31.758268356323242,13.905622482299805,-8.800926208496094,27.252452850341797
5960.0,-3.6780738830566406,8.520182609558105,0.7811121940612793,-92.93843078613281,-104.07701873779297,7.6493000984191895,-0.3421435058116913,-6.836953163146973,3.963655710220337
5961.0,-3.675327777862549,9.58977222442627,0.7292730808258057,-78.2914047241211,-102.68312072753906,-5.18971586227417,11.91353988647461,-0.4488374590873718,9.376019477844238
5962.0,-3.6747894287109375,10.703614234924316,0.6996910572052002,-43.07821273803711,-72.16509246826172,2.6649744510650635,13.405791282653809,-2.218576192855835,4.476176738739014
5963.0,-3.6744346618652344,11.859078407287598,0.6797128319740295,-41.62141418457031,-49.95610809326172,-2.203092336654663,3.9307398796081543,-0.3383156955242157,3.8620526790618896
5964.0,-3.674327850341797,13.057137489318848,0.6655992865562439,-33.864593505859375,-34.58956527709961,1.4627892971038818,1.2677351236343384,-0.6165656447410583,2.2784512042999268
5965.0,-3.674304723739624,14.29918098449707,0.6558060646057129,-30.93093490600586,-25.460966110229492,-1.573975682258606,-0.8425723314285278,-0.11279900372028351,0.88711017370224
5966.0,-3.6743264198303223,15.586713790893555,0.6494746208190918,-27.398006439208984,-21.08094596862793,1.3830163478851318,-1.106099009513855,0.06787239760160446,0.7869699001312256
5967.0,-3.6743624210357666,16.921340942382812,0.6463013291358948,-25.507102966308594,-16.433692932128906,-1.1024924516677856,-1.6255548000335693,-0.20050087571144104,0.6652429699897766
5968.0,-3.674410104751587,18.304779052734375,0.6460452675819397,-22.644620895385742,-12.743852615356445,0.8933238387107849,-1.8688490390777588,0.006547931116074324,0.48427942395210266
5969.0,-3.6744673252105713,19.738794326782227,0.6484923362731934,-20.623008728027344,-8.942292213439941,-0.7469349503517151,-2.1235644817352295,-0.1353471428155899,0.5325674414634705
5970.0,-3.674527883529663,21.22522735595703,0.6534209847450256,-18.022981643676758,-5.927868366241455,0.6999903321266174,-2.0691020488739014,0.027917636558413506,0.5008780360221863
5971.0,-3.674589157104492,22.76597785949707,0.6606292724609375,-16.36705207824707,-3.1873860359191895,-0.7295321226119995,-2.1670444011688232,-0.021001918241381645,0.4211990237236023
5972.0,-3.6746554374694824,24.363033294677734,0.6699075698852539,-13.804338455200195,-0.510267436504364,0.6251043677330017,-2.139577865600586,0.09047693759202957,0.35321876406669617
5973.0,-3.67472243309021,26.018434524536133,0.6810460686683655,-12.230978965759277,1.925070881843567,-0.5390636920928955,-2.1633942127227783,-0.11335288733243942,0.34902194142341614
5974.0,-3.6747896671295166,27.73432731628418,0.6938214898109436,-9.933880805969238,4.40062952041626,0.5298735499382019,-2.057335615158081,-0.060999296605587006,0.4017872214317322
5975.0,-3.674858570098877,29.512910842895508,0.7079905867576599,-8.517380714416504,6.3773088455200195,-0.554536759853363,-2.0485668182373047,-0.01805044896900654,0.30023589730262756
5976.0,-3.674929141998291,31.356489181518555,0.7232866287231445,-6.14725923538208,8.93488597869873,0.5613297820091248,-1.9335261583328247,0.05611115321516991,0.4769442081451416
5977.0,-3.6749989986419678,33.267425537109375,0.7393947243690491,-4.663520812988281,11.02713680267334,-0.5727049708366394,-1.8462247848510742,-0.04572612792253494,0.27800384163856506
5978.0,-3.675065755844116,35.24819564819336,0.7559528946876526,-2.323070526123047,13.606302261352539,0.6376822590827942,-1.6344966888427734,-0.036475688219070435,0.5071806311607361
5979.0,-3.675128936767578,37.30135726928711,0.7725199460983276,-0.9412389397621155,15.941591262817383,-0.84565269947052,-1.5175400972366333,-0.049454182386398315,0.16911908984184265
5980.0,-3.6751914024353027,39.429561614990234,0.7885727286338806,1.797221302986145,19.009178161621094,0.8115492463111877,-1.4041997194290161,2.7175974537385628e-05,0.6448845267295837
5981.0,-3.6752493381500244,41.635562896728516,0.8034492135047913,3.2928502559661865,21.815265655517578,-0.9246560335159302,-1.2057377099990845,0.047817207872867584,0.23925970494747162
5982.0,-3.675306558609009,43.922218322753906,0.8163486123085022,6.124930381774902,25.292686462402344,0.9435948729515076,-1.0659914016723633,0.04057012125849724,0.6824840307235718
5983.0,-3.675365686416626,46.29249572753906,0.8262318968772888,7.764888286590576,29.153125762939453,-1.1478573083877563,-0.8955783247947693,0.014109441079199314,0.202485591173172
5984.0,-3.6754229068756104,48.74945831298828,0.8317971229553223,11.078726768493652,33.75965881347656,1.2453840970993042,-0.6581759452819824,0.007684517651796341,0.7193990349769592
6161.0,-2.8516733646392822,5.594712257385254,1.372061848640442,121.42267608642578,115.45411682128906,17.764389038085938,5.871190071105957,26.506271362304688,-50.489131927490234
6162.0,-2.8320977687835693,6.531459331512451,1.134398102760315,59.613441467285156,-33.7175178527832,16.99717903137207,36.89579391479492,9.88730525970459,-33.294376373291016
6163.0,-2.8182871341705322,7.504475116729736,0.9319210648536682,-81.36343383789062,-133.6521759033203,-60.36453628540039,24.389223098754883,-12.840147972106934,9.154204368591309
6164.0,-2.8110883235931396,8.524191856384277,0.8048590421676636,-109.77723693847656,-114.31980895996094,-16.523841857910156,1.7449305057525635,-6.307072162628174,21.201845169067383
6165.0,-2.807891845703125,9.59108829498291,0.7408449649810791,-82.83672332763672,-94.35169219970703,8.004977226257324,9.296639442443848,0.1892879605293274,3.1582412719726562
6166.0,-2.8070507049560547,10.70379638671875,0.7061396837234497,-40.418277740478516,-73.58683013916016,-5.626067638397217,10.637531280517578,-1.9229260683059692,8.697081565856934
6167.0,-2.8067574501037598,11.859177589416504,0.6838295459747314,-38.37478256225586,-51.784244537353516,3.0316553115844727,5.93972110748291,0.413863867521286,1.3577250242233276
6168.0,-2.806631326675415,13.057168006896973,0.6682592034339905,-34.50251770019531,-37.16196060180664,-2.1378800868988037,1.596248745918274,-0.9588127732276917,4.1357855796813965
6169.0,-2.806600570678711,14.299185752868652,0.657519519329071,-29.709428787231445,-25.438905715942383,1.0585802793502808,-0.08376732468605042,0.4652710258960724,0.17217972874641418
6170.0,-2.8066062927246094,15.586701393127441,0.6505258083343506,-27.760454177856445,-21.678234100341797,-0.7448124289512634,-0.6410802006721497,-0.2550137937068939,1.0825971364974976
6171.0,-2.8066294193267822,16.92131996154785,0.6468400955200195,-25.095918655395508,-16.835050582885742,0.39545583724975586,-1.14749014377594,0.14930878579616547,0.4462394416332245
6172.0,-2.8066651821136475,18.304750442504883,0.6462180018424988,-23.12434196472168,-12.962662696838379,-0.5241495966911316,-1.394607663154602,-0.1568526029586792,0.6496768593788147
6173.0,-2.806706428527832,19.738767623901367,0.6483898758888245,-20.45949363708496,-9.149699211120605,0.30645009875297546,-1.5451328754425049,0.058245621621608734,0.3704957664012909
6174.0,-2.8067526817321777,21.225196838378906,0.6531326174736023,-18.472719192504883,-6.057289123535156,-0.319498211145401,-1.6417797803878784,-0.12761159241199493,0.5506303906440735
6175.0,-2.806800365447998,22.765947341918945,0.6602134108543396,-16.344541549682617,-3.192929744720459,0.15598617494106293,-1.6494606733322144,0.022949008271098137,0.39879682660102844
6176.0,-2.8068501949310303,24.362998962402344,0.6694160103797913,-14.326493263244629,-0.5953050255775452,-0.007742881774902344,-1.663284420967102,0.0015140927862375975,0.38232237100601196
6177.0,-2.8069021701812744,26.01840591430664,0.6805158853530884,-12.23671817779541,1.9440051317214966,0.015060989186167717,-1.6208162307739258,-0.07419401407241821,0.2556755542755127
6178.0,-2.806955575942993,27.73430061340332,0.6932873129844666,-10.24195384979248,4.344553470611572,0.06783962994813919,-1.5867974758148193,-0.018949046730995178,0.3999047577381134
6179.0,-2.8070106506347656,29.51289176940918,0.7074763774871826,-8.500564575195312,6.472912788391113,-0.16370205581188202,-1.5688066482543945,0.07045412808656693,0.3333814740180969
6180.0,-2.8070662021636963,31.356462478637695,0.7228128910064697,-6.3640289306640625,8.932544708251953,0.2553361654281616,-1.4288792610168457,0.0033735462930053473,0.5590022206306458
6181.0,-2.8071208000183105,33.267398834228516,0.7389740347862244,-4.57503080368042,11.110527038574219,-0.2995091378688812,-1.3629813194274902,-0.02117467112839222,0.28502750396728516
6182.0,-2.8071725368499756,35.248172760009766,0.7555969953536987,-2.199260950088501,13.74892520904541,0.4495639204978943,-1.2623673677444458,-0.061167605221271515,0.5769810080528259
6183.0,-2.8072221279144287,37.301334381103516,0.7722340822219849,-0.6052926182746887,16.154800415039062,-0.48653486371040344,-1.1837892532348633,-0.05400675907731056,0.24131104350090027
6184.0,-2.8072702884674072,39.42953872680664,0.7883597016334534,1.7673262357711792,19.1029052734375,0.6874361634254456,-1.069820523262024,-0.014257810078561306,0.6050005555152893
6185.0,-2.807314157485962,41.635555267333984,0.8033055663108826,3.376880407333374,21.971784591674805,-0.7100430130958557,-0.8777607679367065,0.0594506561756134,0.1847669780254364
6186.0,-2.8073575496673584,43.922210693359375,0.8162671327590942,6.284292221069336,25.491640090942383,0.9080906510353088,-0.826889157295227,0.01206722017377615,0.6635779738426208
6187.0,-2.807403326034546,46.29248809814453,0.8261989951133728,7.9972453117370605,29.40104866027832,-0.923484742641449,-0.7514310479164124,-0.002617154736071825,0.22187316417694092
6188.0,-2.807448387145996,48.749454498291016,0.8317904472351074,11.063858032226562,33.88558578491211,1.1069459915161133,-0.553761899471283,-0.001220997073687613,0.6250078678131104
6365.0,-2.005800485610962,5.608798027038574,1.4667530059814453,134.20326232910156,151.2654571533203,15.989943504333496,-6.5474467277526855,19.03766632080078,-59.432552337646484
6366.0,-1.991445541381836,6.5457539558410645,1.2106140851974487,97.33592224121094,7.171489715576172,18.07209014892578,20.288299560546875,19.238609313964844,-40.236751556396484
6367.0,-1.980012059211731,7.512886047363281,0.9810944199562073,-46.99703598022461,-136.29563903808594,-35.325504302978516,25.085908889770508,6.922732353210449,-8.952683448791504
6368.0,-1.973796010017395,8.528244972229004,0.8284025192260742,-111.32524871826172,-118.71766662597656,-42.361419677734375,4.262760639190674,-3.3112921714782715,33.4771842956543
6369.0,-1.970855951309204,9.592741966247559,0.7512574791908264,-78.09644317626953,-92.14209747314453,22.23957061767578,6.647364616394043,1.937267541885376,-1.7865201234817505
6370.0,-1.9698212146759033,10.704025268554688,0.7113333940505981,-42.03257369995117,-78.33423614501953,-14.778939247131348,10.181811332702637,-1.7101651430130005,12.607223510742188
6371.0,-1.9696043729782104,11.859297752380371,0.687058687210083,-32.4080924987793,-54.380943298339844,9.33715534210205,6.5928850173950195,0.7151556611061096,-1.1461572647094727
6372.0,-1.969487190246582,13.057211875915527,0.6703040599822998,-35.674560546875,-39.57383346557617,-6.573513507843018,1.8297635316848755,-0.9963856935501099,5.903014183044434
6373.0,-1.969455599784851,14.299193382263184,0.6588205695152283,-27.62022590637207,-25.92643928527832,4.245372295379639,0.38312575221061707,0.743934690952301,-0.6996215581893921
6374.0,-1.9694507122039795,15.58669376373291,0.6513184905052185,-28.342405319213867,-21.890972137451172,-3.0868000984191895,-0.4111044108867645,-0.5052290558815002,1.5657693147659302
6375.0,-1.9694650173187256,16.921308517456055,0.6472437381744385,-24.265825271606445,-17.0977840423584,2.364104986190796,-0.8187312483787537,0.17663370072841644,0.17599716782569885
6376.0,-1.9694890975952148,18.30473518371582,0.6463479399681091,-23.436843872070312,-12.789344787597656,-1.91228187084198,-0.8353690505027771,-0.3710172176361084,0.8758658170700073
6377.0,-1.9695175886154175,19.738746643066406,0.6483125686645508,-20.11237335205078,-9.36434268951416,1.6883727312088013,-1.0059396028518677,0.07776349037885666,0.15159940719604492
6378.0,-1.9695502519607544,21.225173950195312,0.6529164910316467,-19.082304000854492,-6.135400772094727,-1.4171563386917114,-1.04456627368927,-0.1664658635854721,0.6597578525543213
6379.0,-1.9695847034454346,22.765928268432617,0.6599008440971375,-16.117246627807617,-3.249260425567627,1.121683120727539,-1.1247349977493286,0.04596645385026932,0.1407398134469986
6380.0,-1.9696205854415894,24.362977981567383,0.6690475940704346,-14.69633674621582,-0.5713393688201904,-0.7549598217010498,-1.1078543663024902,-0.059192679822444916,0.4903506934642792
6381.0,-1.9696578979492188,26.018388748168945,0.6801197528839111,-12.226141929626465,1.8686522245407104,0.5776528716087341,-1.1717420816421509,0.018855134025216103,0.22168228030204773
6382.0,-1.969697117805481,27.734281539916992,0.6928892731666565,-10.660271644592285,4.253589153289795,-0.5052643418312073,-1.1402162313461304,0.0005134894163347781,0.5110897421836853
6383.0,-1.9697377681732178,29.512874603271484,0.7070930004119873,-8.302056312561035,6.611037254333496,0.3314060866832733,-1.1290550231933594,0.0904119536280632,0.26647353172302246
6384.0,-1.9697781801223755,31.3564453125,0.7224591970443726,-6.417235374450684,8.949294090270996,-0.16076703369617462,-1.0629397630691528,0.0021284797694534063,0.5735383033752441
6385.0,-1.969817876815796,33.267391204833984,0.7386597990989685,-4.500320911407471,11.158249855041504,-0.023038653656840324,-1.017299771308899,0.01592518389225006,0.23675832152366638
6386.0,-1.9698551893234253,35.2481575012207,0.7553321123123169,-2.4738519191741943,13.714362144470215,0.15974219143390656,-0.8670692443847656,-0.009159154258668423,0.5916871428489685
6387.0,-1.969890832901001,37.301326751708984,0.7720221281051636,-0.678023099899292,16.148176193237305,-0.25384005904197693,-0.8447073698043823,-0.017045380547642708,0.2191750854253769
6388.0,-1.9699265956878662,39.42953109741211,0.7882018685340881,1.6243956089019775,19.086599349975586,0.32829713821411133,-0.7641702890396118,-0.03235289826989174,0.6162169575691223
6389.0,-1.9699565172195435,41.63554382324219,0.803199291229248,3.5195279121398926,22.085512161254883,-0.5569114685058594,-0.588472843170166,0.0827314630150795,0.22750376164913177
6390.0,-1.9699848890304565,43.922203063964844,0.8162073493003845,6.144152641296387,25.45969009399414,0.6628703474998474,-0.5764574408531189,0.017928803339600563,0.6634965538978577
6391.0,-1.9700186252593994,46.29248046875,0.826174795627594,8.017794609069824,29.518932342529297,-0.8045631051063538,-0.543357789516449,-0.006170026492327452,0.2629607021808624
6392.0,-1.970052719116211,48.749454498291016,0.8317856192588806,11.017797470092773,33.9394416809082,0.9024387001991272,-0.37290069460868835,0.004102031234651804,0.5532273650169373
6569.0,-1.1840049028396606,5.616156578063965,1.5282670259475708,134.47743225097656,173.353271484375,11.950231552124023,-7.181888103485107,11.217021942138672,-62.79193115234375
6570.0,-1.1765565872192383,6.556107044219971,1.263759732246399,127.25111389160156,51.65277862548828,23.358598709106445,5.822578430175781,8.211211204528809,-44.062747955322266
6571.0,-1.1693538427352905,7.5198469161987305,1.0195426940917969,-8.566376686096191,-118.30162048339844,-2.95286226272583,14.223749160766602,3.5998902320861816,-17.293455123901367
6572.0,-1.164965271949768,8.531645774841309,0.8485503792762756,-92.49862670898438,-117.11449432373047,-41.346038818359375,6.110261917114258,-0.11559586226940155,34.53628921508789
6573.0,-1.1629022359848022,9.594168663024902,0.7594009041786194,-76.00769805908203,-99.19934844970703,21.18108367919922,4.635625839233398,0.9678705930709839,-2.798098087310791
6574.0,-1.1620343923568726,10.704267501831055,0.7149699926376343,-39.04580307006836,-85.17267608642578,-13.799317359924316,8.622902870178223,-0.47078725695610046,14.171289443969727
6575.0,-1.1618925333023071,11.859406471252441,0.6892344951629639,-30.326688766479492,-57.57811737060547,8.11131763458252,4.6425089836120605,-0.21616612374782562,-2.1062891483306885
6576.0,-1.1618165969848633,13.057252883911133,0.6716619729995728,-34.035648345947266,-41.53486251831055,-5.480144023895264,1.8132131099700928,-0.25272247195243835,6.381530284881592
6577.0,-1.1617907285690308,14.299201011657715,0.6596655249595642,-27.380184173583984,-26.66690444946289,3.1469461917877197,0.2737475633621216,0.17970170080661774,-0.7017170190811157
6578.0,-1.1617847681045532,15.586692810058594,0.6518228650093079,-27.98025131225586,-22.030515670776367,-2.4717531204223633,0.03440319001674652,-0.1507887989282608,1.5374356508255005
6579.0,-1.1617916822433472,16.921297073364258,0.6474871039390564,-24.459688186645508,-17.348081588745117,1.809830665588379,-0.45686763525009155,-0.01631333865225315,0.2976391017436981
6580.0,-1.1618059873580933,18.304725646972656,0.6464106440544128,-23.214954376220703,-12.702459335327148,-1.624523401260376,-0.43276622891426086,-0.27854636311531067,0.7785696387290955
6581.0,-1.161824107170105,19.738737106323242,0.6482386589050293,-20.442068099975586,-9.715535163879395,1.3375053405761719,-0.6912470459938049,0.027439821511507034,0.1930924355983734
6582.0,-1.1618446111679077,21.225160598754883,0.652752161026001,-18.901275634765625,-5.940911293029785,-1.0606260299682617,-0.6368016600608826,-0.068952776491642,0.739310622215271
6583.0,-1.1618658304214478,22.765914916992188,0.6596734523773193,-16.34733772277832,-3.461294651031494,0.9090518355369568,-0.709953248500824,0.013342605903744698,0.13815408945083618
6584.0,-1.161887288093567,24.36296844482422,0.6687864065170288,-14.65675163269043,-0.5054493546485901,-0.7577415108680725,-0.6356578469276428,-0.0003556364099495113,0.5081838965415955
6585.0,-1.1619105339050293,26.018375396728516,0.6798420548439026,-12.262176513671875,1.8116538524627686,0.5788758397102356,-0.7410679459571838,0.005261075682938099,0.19726695120334625
6586.0,-1.161936640739441,27.734270095825195,0.6926117539405823,-10.641783714294434,4.316845417022705,-0.45616695284843445,-0.7024385929107666,-0.11133437603712082,0.5889844298362732
6587.0,-1.1619623899459839,29.512861251831055,0.7068275213241577,-8.519715309143066,6.530986785888672,0.1989964097738266,-0.695740282535553,0.03439237177371979,0.18354274332523346
6588.0,-1.1619879007339478,31.356433868408203,0.7222152352333069,-6.500809669494629,8.965576171875,-0.07095310091972351,-0.6260488629341125,0.15107160806655884,0.4550046920776367
6589.0,-1.1620138883590698,33.26737594604492,0.7384430170059204,-4.5797576904296875,11.168682098388672,-0.10940199345350266,-0.612774133682251,0.07518167048692703,0.1638852208852768
6590.0,-1.1620374917984009,35.24814987182617,0.7551493644714355,-2.4263813495635986,13.759415626525879,0.15498094260692596,-0.5003302693367004,-0.045733269304037094,0.6270439624786377
6591.0,-1.1620596647262573,37.30131149291992,0.7718754410743713,-0.4900745749473572,16.260251998901367,-0.23869076371192932,-0.47785764932632446,-0.0335547961294651,0.17758020758628845
6592.0,-1.1620815992355347,39.42951965332031,0.7880925536155701,1.850814938545227,19.179494857788086,0.4294109642505646,-0.4278673529624939,-0.00985660683363676,0.667345404624939
6593.0,-1.1620984077453613,41.63553237915039,0.8031258583068848,3.596498966217041,22.19308853149414,-0.49913686513900757,-0.34950757026672363,0.07427915930747986,0.2783048450946808
6594.0,-1.1621140241622925,43.92218780517578,0.8161660432815552,6.161100387573242,25.506196975708008,0.6575527191162109,-0.33130356669425964,0.04474121332168579,0.6945151686668396
6595.0,-1.1621352434158325,46.29248046875,0.8261581659317017,8.130881309509277,29.647918701171875,-0.722696840763092,-0.36278605461120605,0.05139094963669777,0.3091173470020294
6596.0,-1.1621581315994263,48.749454498291016,0.8317822813987732,11.081615447998047,34.042903900146484,0.9288293123245239,-0.250705748796463,0.04400291293859482,0.5423781871795654
6773.0,-0.38978952169418335,5.6190409660339355,1.5570762157440186,132.97454833984375,185.3375244140625,13.954560279846191,-2.547315835952759,1.5697280168533325,-63.379512786865234
6774.0,-0.38776034116744995,6.561233043670654,1.2901498079299927,130.5099334716797,70.26559448242188,20.922637939453125,1.5041340589523315,3.9713668823242188,-45.9071044921875
6775.0,-0.38534015417099,7.52353572845459,1.0396966934204102,8.021328926086426,-109.6097412109375,-4.069030284881592,5.303652286529541,1.750662922859192,-23.794710159301758
6776.0,-0.38372862339019775,8.533577919006348,0.8597188591957092,-80.6691665649414,-118.17549133300781,-43.07411193847656,1.9224473237991333,-1.5723658800125122,33.87956237792969
6777.0,-0.3829849064350128,9.595005989074707,0.763926088809967,-73.14801025390625,-103.01953887939453,20.71208381652832,2.6180665493011475,1.306024432182312,-2.7173593044281006
6778.0,-0.3826521039009094,10.704415321350098,0.7168120741844177,-36.57955551147461,-89.21882629394531,-12.947739601135254,3.1674752235412598,-0.5326488018035889,14.187630653381348
6779.0,-0.38260361552238464,11.859477996826172,0.6902905106544495,-29.31294059753418,-59.40319061279297,7.331114768981934,2.025010347366333,0.1780623495578766,-1.8430126905441284
6780.0,-0.38257983326911926,13.057281494140625,0.6723037362098694,-32.7149658203125,-43.14266586303711,-4.638144016265869,0.6785559058189392,-0.13539274036884308,5.91347074508667
6781.0,-0.38257116079330444,14.29920768737793,0.6600455641746521,-26.84970474243164,-26.566070556640625,2.6937942504882812,0.20595183968544006,0.16883505880832672,-0.27858781814575195
6782.0,-0.3825707733631134,15.586692810058594,0.6520329117774963,-27.577882766723633,-22.088706970214844,-1.8254011869430542,-0.06190983206033707,-0.02852759137749672,1.1203347444534302
6783.0,-0.3825731575489044,16.921297073364258,0.6475662589073181,-24.776111602783203,-17.50128936767578,1.4220284223556519,-0.010155702941119671,0.02590465545654297,0.5282393097877502
6784.0,-0.38257771730422974,18.304719924926758,0.6463994383811951,-23.145326614379883,-12.694948196411133,-1.140946865081787,-0.1884678453207016,-0.04857611283659935,0.587338924407959
6785.0,-0.38258644938468933,19.738731384277344,0.648158609867096,-20.6969051361084,-9.91219425201416,0.9505707025527954,-0.20748506486415863,0.056512895971536636,0.2917764484882355
6786.0,-0.38259485363960266,21.225156784057617,0.6526280045509338,-18.92456817626953,-5.953033924102783,-0.9120535850524902,-0.19426514208316803,-0.07101989537477493,0.5952877402305603
6787.0,-0.38260266184806824,22.765913009643555,0.6595199108123779,-16.282251358032227,-3.463144063949585,0.7177534103393555,-0.20865441858768463,-0.07245456427335739,0.24886879324913025
6788.0,-0.3826107680797577,24.36296272277832,0.6686184406280518,-14.59127140045166,-0.42687612771987915,-0.51650470495224,-0.20173288881778717,-0.0488906167447567,0.5301609039306641
6789.0,-0.38262060284614563,26.018373489379883,0.6796691417694092,-12.393853187561035,1.7092493772506714,0.3814140558242798,-0.27402305603027344,0.05879228562116623,0.2268766313791275
6790.0,-0.38263314962387085,27.734264373779297,0.6924417018890381,-10.430876731872559,4.452464580535889,-0.23881423473358154,-0.29354771971702576,-0.012587613426148891,0.4904741644859314
6791.0,-0.3826458752155304,29.51285171508789,0.706666886806488,-8.440169334411621,6.629748344421387,0.17656280100345612,-0.23100796341896057,0.006879232358187437,0.1355191320180893
6792.0,-0.38265758752822876,31.35643196105957,0.7220696210861206,-6.589599132537842,8.91552734375,0.04789665713906288,-0.22361479699611664,0.018036765977740288,0.5329006314277649
6793.0,-0.3826696276664734,33.26736831665039,0.738314688205719,-4.710564136505127,11.168318748474121,-0.23241721093654633,-0.24815258383750916,-0.02017110399901867,0.28757917881011963
6794.0,-0.3826797306537628,35.24814224243164,0.75504070520401,-2.506148338317871,13.701056480407715,0.2542119324207306,-0.16574634611606598,-0.027101295068860054,0.7105480432510376
6795.0,-0.3826880156993866,37.30130386352539,0.7717878818511963,-0.6863712072372437,16.217864990234375,-0.3713240325450897,-0.232271209359169,0.010193027555942535,0.15932494401931763
6796.0,-0.38269689679145813,39.42951583862305,0.788026750087738,1.7074308395385742,19.107027053833008,0.46178674697875977,-0.18553005158901215,-0.0014544781297445297,0.7004460692405701
6797.0,-0.3827013671398163,41.635528564453125,0.8030813932418823,3.5516855716705322,22.210674285888672,-0.5034186840057373,-0.07513388246297836,0.012607111595571041,0.2517041862010956
6798.0,-0.3827044367790222,43.92218780517578,0.8161406517028809,6.139808177947998,25.506439208984375,0.6699068546295166,-0.15785880386829376,0.03420800343155861,0.6202344298362732
6799.0,-0.38271385431289673,46.292476654052734,0.8261476755142212,8.069409370422363,29.65473747253418,-0.8781977295875549,-0.17968450486660004,0.008418631739914417,0.30028656125068665
6800.0,-0.38272568583488464,48.749454498291016,0.8317803144454956,11.116646766662598,34.08011245727539,0.9573778510093689,-0.08642976731061935,-0.0036106109619140625,0.5704775452613831
6937.0,0.38272643089294434,-48.74945831298828,0.8317857384681702,11.069887161254883,33.907413482666016,0.89970862865448,-0.06647830456495285,-0.01584695093333721,-0.6075320839881897
6938.0,0.38272303342819214,-46.292484283447266,0.8261719346046448,8.053107261657715,29.56076431274414,-0.8484517335891724,0.04669681563973427,-9.354553185403347e-06,-0.23608826100826263
6939.0,0.3827219009399414,-43.92220687866211,0.8161946535110474,6.027613639831543,25.41592025756836,0.7300258278846741,-0.04065212979912758,0.026100782677531242,-0.6465042233467102
6940.0,0.38271892070770264,-41.63554000854492,0.8031796216964722,3.3435263633728027,22.038022994995117,-0.6310244202613831,-0.026263460516929626,0.042142655700445175,-0.18835735321044922
6941.0,0.38271236419677734,-39.429534912109375,0.788183331489563,1.6258976459503174,18.922883987426758,0.48420923948287964,-0.10735464096069336,0.02341192588210106,-0.6131321787834167
6942.0,0.38270342350006104,-37.301326751708984,0.7720139026641846,-0.7835045456886292,16.195615768432617,-0.47283607721328735,-0.07963471859693527,-0.08289725333452225,-0.23942230641841888
6943.0,0.38269883394241333,-35.248165130615234,0.7553479671478271,-2.4737131595611572,13.842727661132812,0.38555100560188293,-0.1013343408703804,0.01983015052974224,-0.6791330575942993
6944.0,0.3826906383037567,-33.267391204833984,0.7387136816978455,-4.799046039581299,11.025748252868652,-0.35298365354537964,-0.22058263421058655,0.05069328099489212,-0.1579885631799698
6945.0,0.38267982006073,-31.3564453125,0.7225647568702698,-6.527161598205566,9.07946491241455,0.19717548787593842,-0.1273985505104065,-0.05247420072555542,-0.6805253624916077
6946.0,0.3826729655265808,-29.51286506652832,0.7072615027427673,-8.623360633850098,6.6003193855285645,-0.05515161156654358,-0.1392679065465927,0.05656904727220535,-0.22005011141300201
6947.0,0.38266366720199585,-27.734270095825195,0.6931361556053162,-10.338179588317871,4.773921489715576,-0.1680472046136856,-0.1892758458852768,0.035046208649873734,-0.41994789242744446
6948.0,0.38265323638916016,-26.018369674682617,0.680452287197113,-12.247570037841797,2.021324396133423,0.33933770656585693,-0.1944480985403061,-0.07928598672151566,-0.1235036849975586
6949.0,0.3826436698436737,-24.362957000732422,0.6694759726524353,-14.46644401550293,-0.2278878390789032,-0.3660494089126587,-0.26315760612487793,0.028603971004486084,-0.5793728828430176
6950.0,0.3826337158679962,-22.765897750854492,0.6604365706443787,-16.22150993347168,-3.0176889896392822,0.6418477892875671,-0.16678857803344727,-0.07854658365249634,-0.27261295914649963
6951.0,0.382625550031662,-21.225135803222656,0.6535906195640564,-18.739606857299805,-5.667831897735596,-0.7633543014526367,-0.19809332489967346,-0.07975836843252182,-0.5896515250205994
6952.0,0.38261958956718445,-19.73870277404785,0.6491503119468689,-20.633939743041992,-9.472518920898438,0.6838325262069702,-0.16520284116268158,-0.0114925317466259,-0.35167476534843445
6953.0,0.3826131224632263,-18.3046817779541,0.6473932862281799,-22.816776275634766,-11.877971649169922,-0.9420446157455444,-0.19223445653915405,0.18315182626247406,-0.6444358825683594
6954.0,0.38260504603385925,-16.92124366760254,0.6485337615013123,-24.545377731323242,-16.966552734375,1.329750895500183,-0.153910830616951,-0.0774974450469017,-0.44143179059028625
6955.0,0.38259828090667725,-15.586626052856445,0.6529465317726135,-27.329975128173828,-21.477861404418945,-1.6398327350616455,-0.18255044519901276,0.051817383617162704,-1.314677357673645
6956.0,0.38259416818618774,-14.299131393432617,0.6608838438987732,-27.031139373779297,-26.173885345458984,2.396474599838257,-0.07872583717107773,-0.05326729267835617,0.35588356852531433
6957.0,0.38259679079055786,-13.057196617126465,0.6730420589447021,-32.56699752807617,-42.38957595825195,-4.365240097045898,0.39484429359436035,0.12483537942171097,-6.0812883377075195
6958.0,0.382616251707077,-11.859380722045898,0.6908941864967346,-29.303483963012695,-59.00503921508789,7.055034160614014,1.5726935863494873,-0.28956082463264465,1.8274487257003784
6959.0,0.3826594650745392,-10.70431137084961,0.7172459959983826,-36.456851959228516,-89.29437255859375,-12.556192398071289,2.5555307865142822,0.5706222057342529,-14.258818626403809
6960.0,0.3829774856567383,-9.594867706298828,0.7641257643699646,-73.95098114013672,-103.63465881347656,19.948232650756836,1.6829355955123901,-1.2844105958938599,2.948625087738037
6961.0,0.3837025761604309,-8.533455848693848,0.8597559332847595,-80.09845733642578,-117.91626739501953,-42.27470016479492,0.9153028130531311,1.1869195699691772,-34.261932373046875
6962.0,0.3852689564228058,-7.523429870605469,1.0396628379821777,6.406773567199707,-110.87843322753906,-3.726484537124634,3.986083745956421,-2.852250814437866,23.43903923034668
6963.0,0.3876051604747772,-6.5610737800598145,1.2900315523147583,130.28367614746094,70.17017364501953,21.985078811645508,-0.5647254586219788,-3.6571428775787354,45.840248107910156
6964.0,0.38947203755378723,-5.618860244750977,1.5569077730178833,131.81475830078125,182.46693420410156,13.007043838500977,-4.099464416503906,-1.716344952583313,62.987274169921875
7141.0,1.1621588468551636,-48.74945831298828,0.8317871689796448,10.98282527923584,33.863956451416016,0.86690753698349,-0.22450755536556244,0.007689540274441242,-0.5884514451026917
7142.0,1.1621445417404175,-46.292484283447266,0.8261785507202148,8.037322998046875,29.54383659362793,-0.7973995804786682,-0.17820248007774353,0.010014593601226807,-0.29838040471076965
7143.0,1.1621308326721191,-43.92220687866211,0.8162108659744263,6.139067649841309,25.44660186767578,0.6516875624656677,-0.2443695068359375,-0.02159835584461689,-0.7198357582092285
7144.0,1.162115216255188,-41.63554382324219,0.8032077550888062,3.5555360317230225,22.104036331176758,-0.49627235531806946,-0.24515068531036377,-0.04124388471245766,-0.2230750471353531
7145.0,1.162096619606018,-39.429534912109375,0.7882236242294312,1.7285395860671997,19.008134841918945,0.4207794666290283,-0.36478880047798157,0.10406409204006195,-0.572723925113678
7146.0,1.1620742082595825,-37.30133056640625,0.7720665335655212,-0.6236689686775208,16.194435119628906,-0.3385638892650604,-0.3592061400413513,0.035697001963853836,-0.2252189815044403
7147.0,1.1620556116104126,-35.248165130615234,0.7554121017456055,-2.544508218765259,13.731047630310059,0.1958787590265274,-0.3468458652496338,-0.0037653299514204264,-0.7227458357810974
7148.0,1.1620341539382935,-33.267391204833984,0.738788366317749,-4.670303821563721,11.168952941894531,-0.1143646314740181,-0.5473425388336182,-0.025613080710172653,-0.11469858139753342
7149.0,1.162009596824646,-31.356449127197266,0.7226472496986389,-6.472946643829346,9.051453590393066,0.10021613538265228,-0.4961361587047577,-0.09777146577835083,-0.5366981625556946
7150.0,1.161988377571106,-29.512874603271484,0.7073485851287842,-8.681157112121582,6.506840229034424,0.012397273443639278,-0.5561382174491882,-0.05560731515288353,-0.20056819915771484
7151.0,1.161966323852539,-27.73427963256836,0.6932240724563599,-10.543743133544922,4.738037586212158,-0.22399364411830902,-0.6937503218650818,-0.04801555722951889,-0.5102190375328064
7152.0,1.1619428396224976,-26.018373489379883,0.6805358529090881,-12.388169288635254,1.9195053577423096,0.4664371609687805,-0.6740508079528809,-0.03628678619861603,-0.16543413698673248
7153.0,1.1619197130203247,-24.362958908081055,0.6695475578308105,-14.602715492248535,-0.2294565737247467,-0.5877353549003601,-0.6362178325653076,0.1019594594836235,-0.5159959197044373
7154.0,1.1618965864181519,-22.765901565551758,0.6604885458946228,-16.274934768676758,-3.0817742347717285,0.8248134851455688,-0.7257508635520935,-0.08705025911331177,-0.12312068045139313
7155.0,1.161875605583191,-21.225143432617188,0.65361088514328,-18.820783615112305,-5.703747272491455,-0.959931492805481,-0.6310300230979919,0.01545169111341238,-0.6671979427337646
7156.0,1.161857008934021,-19.73870849609375,0.6491259932518005,-20.359609603881836,-9.209746360778809,1.2209267616271973,-0.5960163474082947,0.0732007548213005,-0.23261795938014984
7157.0,1.1618404388427734,-18.304685592651367,0.6473026871681213,-23.080944061279297,-12.026739120483398,-1.3751626014709473,-0.5360129475593567,0.32871344685554504,-0.6716728806495667
7158.0,1.1618236303329468,-16.921249389648438,0.6483564972877502,-24.450681686401367,-16.96215057373047,1.620309591293335,-0.6966910362243652,0.0018696767510846257,-0.23683740198612213
7159.0,1.161812663078308,-15.586630821228027,0.6526439189910889,-27.609922409057617,-21.421831130981445,-2.24055552482605,-0.24433614313602448,0.2243952602148056,-1.5883736610412598
7160.0,1.1618133783340454,-14.299131393432617,0.6604155898094177,-27.024492263793945,-25.97140884399414,3.0433316230773926,0.013419137336313725,-0.06253194063901901,0.7305798530578613
7161.0,1.1618329286575317,-13.057173728942871,0.6723189353942871,-33.700531005859375,-41.04255676269531,-5.23135232925415,1.3854066133499146,0.24883651733398438,-6.330310344696045
7162.0,1.161906123161316,-11.859319686889648,0.689766526222229,-30.122081756591797,-57.232608795166016,7.807144641876221,4.3272528648376465,0.08660639077425003,1.9627724885940552
7163.0,1.1620427370071411,-10.704171180725098,0.7153525352478027,-38.78091049194336,-85.11392974853516,-13.540192604064941,8.062905311584473,0.24132396280765533,-13.975899696350098
7164.0,1.1628960371017456,-9.594061851501465,0.7595845460891724,-76.00914764404297,-99.37702178955078,21.174394607543945,3.9120194911956787,-1.0738238096237183,2.7291886806488037
7165.0,1.1649342775344849,-8.531547546386719,0.8485904335975647,-93.11776733398438,-118.42998504638672,-41.521183013916016,5.021249771118164,-0.31922486424446106,-34.94833755493164
7166.0,1.1692829132080078,-7.5197858810424805,1.0195990800857544,-8.197566032409668,-119.06269073486328,-3.157837152481079,13.154380798339844,-3.1662676334381104,17.683805465698242
7167.0,1.17638099193573,-6.556120872497559,1.2639607191085815,126.32514953613281,49.53338623046875,22.17241096496582,4.644254207611084,-8.962654113769531,43.944480895996094
7168.0,1.1835500001907349,-5.616207122802734,1.5288145542144775,135.52037048339844,173.42567443847656,12.275321960449219,-7.981967449188232,-10.92624568939209,62.649837493896484
7345.0,1.97005295753479,-48.74945831298828,0.8317899107933044,10.917112350463867,33.77853775024414,0.8770743012428284,-0.3665528893470764,-0.04261184111237526,-0.5683736205101013
7346.0,1.9700276851654053,-46.292484283447266,0.8261910080909729,8.036258697509766,29.516780853271484,-0.7871097922325134,-0.346990704536438,0.010517232120037079,-0.25709185004234314
7347.0,1.9700021743774414,-43.92220687866211,0.8162421584129333,6.1191630363464355,25.40280532836914,0.5703335404396057,-0.5153165459632874,0.07492806762456894,-0.6685953736305237
7348.0,1.9699736833572388,-41.63554763793945,0.803263783454895,3.539024829864502,22.047027587890625,-0.5163752436637878,-0.5339377522468567,-0.016706110909581184,-0.21851012110710144
7349.0,1.9699419736862183,-39.42953872680664,0.7883063554763794,1.7512328624725342,18.978532791137695,0.4053313136100769,-0.7253099083900452,0.048141513019800186,-0.6288847923278809
7350.0,1.9699057340621948,-37.301334381103516,0.7721766233444214,-0.569060742855072,16.227479934692383,-0.23428747057914734,-0.7902196645736694,-0.0022859189193695784,-0.22929444909095764
7351.0,1.9698723554611206,-35.2481689453125,0.7555480599403381,-2.5279695987701416,13.646659851074219,0.15105952322483063,-0.774061918258667,0.002922919113188982,-0.6175830960273743
7352.0,1.9698370695114136,-33.267398834228516,0.7389479279518127,-4.586674213409424,11.211679458618164,-0.004405095707625151,-0.9734311699867249,-0.02859160676598549,-0.1303642839193344
7353.0,1.9697988033294678,-31.35645866394043,0.7228249907493591,-6.476642608642578,9.006560325622559,0.018258430063724518,-0.9624770879745483,0.036746684461832047,-0.5756099820137024
7354.0,1.969762921333313,-29.512880325317383,0.7075386047363281,-8.358494758605957,6.614738941192627,0.2134990394115448,-0.9624399542808533,0.0136357257142663,-0.26489564776420593
7355.0,1.9697265625,-27.734285354614258,0.693417489528656,-10.44754409790039,4.5917792320251465,-0.366163045167923,-1.0868538618087769,0.07265742868185043,-0.45184844732284546
7356.0,1.9696900844573975,-26.018386840820312,0.6807218194007874,-12.101531028747559,2.1112301349639893,0.4921463131904602,-1.1380213499069214,0.02968248911201954,-0.23419973254203796
7357.0,1.9696530103683472,-24.362974166870117,0.6697103977203369,-14.492057800292969,-0.2258300632238388,-0.7710137963294983,-1.133034586906433,0.1409541815519333,-0.46829846501350403
7358.0,1.9696156978607178,-22.765914916992188,0.6606121063232422,-16.05560302734375,-3.0257997512817383,0.9875615835189819,-1.1017123460769653,-0.11780960112810135,-0.16718152165412903
7359.0,1.9695814847946167,-21.225156784057617,0.6536700129508972,-18.787078857421875,-5.7408952713012695,-1.1094762086868286,-1.0855631828308105,0.08598323166370392,-0.5793776512145996
7360.0,1.9695502519607544,-19.738718032836914,0.6490945219993591,-20.093292236328125,-8.983559608459473,1.4677764177322388,-1.1141825914382935,-0.10549158602952957,-0.19302034378051758
7361.0,1.96952223777771,-18.30470085144043,0.6471350193023682,-23.308916091918945,-12.299386024475098,-1.9134989976882935,-0.9978867173194885,0.2812900245189667,-0.7474377155303955
7362.0,1.9694966077804565,-16.921262741088867,0.6480112075805664,-24.181854248046875,-16.610992431640625,2.283513307571411,-1.0088709592819214,-0.20696428418159485,-0.24024870991706848
7363.0,1.9694788455963135,-15.586638450622559,0.6520436406135559,-28.155590057373047,-21.446596145629883,-2.9805657863616943,-0.6049739718437195,0.5214433073997498,-1.5928905010223389
7364.0,1.9694786071777344,-14.299126625061035,0.6594818234443665,-27.54355239868164,-25.31013298034668,4.045443058013916,0.007222884334623814,-0.6291856169700623,0.722971498966217
7365.0,1.969506025314331,-13.057136535644531,0.6708821654319763,-35.145206451416016,-39.28675842285156,-6.264968395233154,1.5640311241149902,1.1708117723464966,-5.839599132537842
7366.0,1.9696179628372192,-11.85921573638916,0.6875261068344116,-32.583011627197266,-54.048892974853516,8.920161247253418,6.1141133308410645,-0.6601200699806213,1.1596530675888062
7367.0,1.9698336124420166,-10.703940391540527,0.711666464805603,-41.30025100708008,-78.15760040283203,-14.332681655883789,10.00180435180664,1.703429102897644,-12.653011322021484
7368.0,1.9708526134490967,-9.59264850616455,0.7514364719390869,-78.76453399658203,-92.92387390136719,21.479597091674805,6.154131889343262,-1.8963263034820557,1.6764870882034302
7369.0,1.9737660884857178,-8.52816104888916,0.8284483551979065,-111.04784393310547,-119.58295440673828,-41.663150787353516,3.7860875129699707,3.432192087173462,-33.616817474365234
7370.0,1.9799573421478271,-7.512866020202637,0.9811676740646362,-48.62239074707031,-138.59613037109375,-35.81332778930664,24.13030242919922,-8.233024597167969,8.534655570983887
7371.0,1.9913331270217896,-6.54587984085083,1.2110686302185059,98.42350769042969,6.82993221282959,19.550222396850586,19.673646926879883,-18.656896591186523,40.49225997924805
7372.0,2.0055854320526123,-5.609021186828613,1.4679213762283325,134.83143615722656,150.58250427246094,15.480043411254883,-7.204375743865967,-19.87915802001953,59.83736801147461
7549.0,2.8074488639831543,-48.74946594238281,0.8317934274673462,11.045417785644531,33.77703857421875,1.0783010721206665,-0.5134997963905334,-0.06579404324293137,-0.6122319102287292
7550.0,2.807410955429077,-46.29249572753906,0.8262100219726562,7.864314556121826,29.368228912353516,-0.9109935164451599,-0.5359326004981995,-0.08837208151817322,-0.23176738619804382
7551.0,2.807373285293579,-43.922210693359375,0.8162907958030701,6.094972610473633,25.394256591796875,0.8649535179138184,-0.7543169260025024,-0.032119493931531906,-0.7084231376647949
7552.0,2.8073313236236572,-41.635555267333984,0.803350567817688,3.438544988632202,21.992982864379883,-0.6248655319213867,-0.8033308982849121,-0.019672153517603874,-0.19846805930137634
7553.0,2.807285785675049,-39.4295539855957,0.7884355187416077,1.6050015687942505,18.823347091674805,0.6243435740470886,-1.025446891784668,0.03619229793548584,-0.6486786007881165
7554.0,2.8072359561920166,-37.30134963989258,0.7723502516746521,-0.6952875852584839,16.173368453979492,-0.5361412167549133,-1.0907527208328247,-0.003959197085350752,-0.2482059895992279
7555.0,2.8071889877319336,-35.24818420410156,0.755763590335846,-2.2865889072418213,13.620107650756836,0.417436420917511,-1.1108092069625854,0.02794184908270836,-0.5671016573905945
7556.0,2.807138681411743,-33.26741409301758,0.7392017841339111,-4.571589946746826,11.172691345214844,-0.3246241807937622,-1.3415367603302002,-0.00585404597222805,-0.21002329885959625
7557.0,2.80708646774292,-31.356473922729492,0.7231088280677795,-6.303088665008545,8.977725982666016,0.31845855712890625,-1.3711310625076294,-0.06210675463080406,-0.6004731059074402
7558.0,2.8070359230041504,-29.512895584106445,0.7078433036804199,-8.495270729064941,6.540782928466797,-0.29309365153312683,-1.4323970079421997,-0.07408278435468674,-0.3951316475868225
7559.0,2.806985378265381,-27.734310150146484,0.6937288641929626,-10.15064525604248,4.522278308868408,0.13236069679260254,-1.5427219867706299,0.03286212310194969,-0.3496032953262329
7560.0,2.8069345951080322,-26.018404006958008,0.6810239553451538,-12.151894569396973,2.202829599380493,-0.022982535883784294,-1.5358760356903076,-0.03940063342452049,-0.29585182666778564
7561.0,2.8068830966949463,-24.362993240356445,0.6699784994125366,-14.159156799316406,-0.2054598480463028,-0.07266578823328018,-1.6709926128387451,0.08786129206418991,-0.36741185188293457
7562.0,2.8068315982818604,-22.765933990478516,0.6608200669288635,-16.200883865356445,-3.0136632919311523,0.0064154332503676414,-1.6522877216339111,0.003917605150490999,-0.4538537859916687
7563.0,2.806783676147461,-21.225175857543945,0.6537784934043884,-18.307220458984375,-5.849238395690918,-0.1700296700000763,-1.631735920906067,0.13909216225147247,-0.3730649948120117
7564.0,2.80673885345459,-19.738740921020508,0.6490635275840759,-20.33983039855957,-8.761874198913574,0.13277100026607513,-1.5601999759674072,0.0141834681853652,-0.3429219424724579
7565.0,2.806697368621826,-18.304719924926758,0.6468982100486755,-22.81696319580078,-12.271121978759766,-0.18272195756435394,-1.4446403980255127,0.28743866086006165,-0.5283246636390686
7566.0,2.8066599369049072,-16.92127799987793,0.6475033164024353,-24.94655990600586,-16.313446044921875,0.3694005012512207,-1.2642416954040527,-0.12933625280857086,-0.5207118391990662
7567.0,2.806633234024048,-15.586647987365723,0.6511527895927429,-27.669130325317383,-21.294416427612305,-0.5317901968955994,-0.8153530359268188,0.4220547378063202,-1.0561178922653198
7568.0,2.8066232204437256,-14.299123764038086,0.658090353012085,-29.637514114379883,-25.027555465698242,0.7757048606872559,-0.3907322585582733,-0.5371074080467224,-0.21071133017539978
7569.0,2.8066506385803223,-13.057100296020508,0.6687581539154053,-34.52614974975586,-36.958377838134766,-1.9409180879592896,1.3733351230621338,1.1992425918579102,-4.136139392852783
7570.0,2.806771993637085,-11.85910701751709,0.6842339038848877,-37.96500015258789,-51.319400787353516,2.9988551139831543,5.511011123657227,-0.8330751061439514,-1.3285728693008423
7571.0,2.8070642948150635,-10.703721046447754,0.706428050994873,-40.68113327026367,-73.9218978881836,-5.478145122528076,10.50955867767334,2.3326895236968994,-8.789446830749512
7572.0,2.8078901767730713,-9.590999603271484,0.7410141229629517,-82.64361572265625,-94.70409393310547,8.301939964294434,8.911713600158691,-0.831853449344635,-2.9923436641693115
7573.0,2.811070442199707,-8.524125099182129,0.8049293160438538,-109.88975524902344,-114.82164764404297,-16.62230110168457,1.0020794868469238,6.706377983093262,-21.17296028137207
7574.0,2.8182427883148193,-7.504456520080566,0.9320229887962341,-81.69145965576172,-134.74339294433594,-61.334407806396484,24.00296401977539,13.219968795776367,-9.195751190185547
7575.0,2.832071542739868,-6.531566143035889,1.1349068880081177,59.89472198486328,-34.22355270385742,16.72194480895996,35.99495315551758,-10.129984855651855,33.425594329833984
7576.0,2.851754665374756,-5.59492826461792,1.3731753826141357,122.33551025390625,116.02008819580078,17.736955642700195,5.4950947761535645,-27.340763092041016,50.79872131347656
7753.0,3.675424098968506,-48.74946594238281,0.8317986130714417,11.018982887268066,33.653141021728516,1.169012427330017,-0.6433804035186768,-0.04098889231681824,-0.70000159740448
7754.0,3.6753733158111572,-46.292503356933594,0.8262372612953186,7.801438331604004,29.18686294555664,-1.0724202394485474,-0.7596762180328369,-0.079446941614151,-0.23688438534736633
7755.0,3.675321578979492,-43.92223358154297,0.816360354423523,6.069522380828857,25.285202026367188,0.9598485231399536,-1.0107203722000122,0.014846042729914188,-0.7347899079322815
7756.0,3.6752662658691406,-41.63557052612305,0.8034735918045044,3.1395208835601807,21.754350662231445,-1.0015052556991577,-1.1339284181594849,0.07843916863203049,-0.16561247408390045
7757.0,3.6752066612243652,-39.4295654296875,0.7886186242103577,1.6882277727127075,18.776046752929688,0.8592106103897095,-1.343500018119812,0.0026530774775892496,-0.6159100532531738
7758.0,3.675142765045166,-37.30136489868164,0.7725958824157715,-0.8759914040565491,16.03343391418457,-0.7791391015052795,-1.447513461112976,-0.01409323513507843,-0.23708154261112213
7759.0,3.6750826835632324,-35.24820327758789,0.7560687065124512,-2.352222204208374,13.513406753540039,0.6283356547355652,-1.523513913154602,-0.016056491062045097,-0.5506277680397034
7760.0,3.6750168800354004,-33.26742935180664,0.7395603656768799,-4.699163913726807,11.077254295349121,-0.6532723307609558,-1.718985676765442,0.017978033050894737,-0.23719944059848785
7761.0,3.6749496459960938,-31.35649299621582,0.7235103845596313,-6.120598316192627,8.906821250915527,0.5578524470329285,-1.7227752208709717,-0.04606994614005089,-0.523646891117096
7762.0,3.6748850345611572,-29.512922286987305,0.708275318145752,-8.43505859375,6.46273136138916,-0.6646007895469666,-1.8594931364059448,0.004503380972892046,-0.41190817952156067
7763.0,3.6748201847076416,-27.734331130981445,0.6941709518432617,-9.779290199279785,4.5880126953125,0.5784048438072205,-1.967556118965149,-0.026225076988339424,-0.3684811294078827
7764.0,3.6747546195983887,-26.018434524536133,0.681455135345459,-12.153128623962402,2.1940176486968994,-0.5530707240104675,-2.040724754333496,-0.012730837799608707,-0.3345833122730255
7765.0,3.6746881008148193,-24.363021850585938,0.6703660488128662,-13.724142074584961,-0.12682901322841644,0.6932235360145569,-2.1165411472320557,0.022192420437932014,-0.31836238503456116
7766.0,3.674621343612671,-22.765962600708008,0.6611276268959045,-16.349153518676758,-2.994962453842163,-0.6803761124610901,-2.1519582271575928,0.06555625051259995,-0.5285012722015381
7767.0,3.6745588779449463,-21.225210189819336,0.6539543271064758,-17.982690811157227,-5.765193462371826,0.8835486173629761,-2.04807448387146,-0.057220809161663055,-0.34760376811027527
7768.0,3.674499750137329,-19.738771438598633,0.6490525603294373,-20.629880905151367,-8.642813682556152,-0.8483733534812927,-2.094627618789673,0.16440702974796295,-0.4749367833137512
7769.0,3.6744437217712402,-18.304750442504883,0.6466147303581238,-22.307451248168945,-12.19947624206543,1.113541603088379,-2.01900315284729,0.041335415095090866,-0.4519563317298889
7770.0,3.6743929386138916,-16.921302795410156,0.6468583941459656,-25.412187576293945,-15.979795455932617,-1.3452696800231934,-1.8644380569458008,0.19795143604278564,-0.6658415198326111
7771.0,3.674354076385498,-15.586664199829102,0.6500025391578674,-27.265323638916016,-20.722421646118164,1.5944795608520508,-1.373848795890808,-0.003134688828140497,-0.7076606154441833
7772.0,3.6743276119232178,-14.299126625061035,0.6562871336936951,-30.981693267822266,-25.093318939208984,-1.8343753814697266,-1.0262750387191772,0.06424778699874878,-0.9474095702171326
7773.0,3.674346923828125,-13.057076454162598,0.666020929813385,-33.58845138549805,-34.348628997802734,1.6963309049606323,1.02640962600708,0.6407305598258972,-2.314321756362915
7774.0,3.6744496822357178,-11.859012603759766,0.680055558681488,-41.765071868896484,-49.71005630493164,-2.483225107192993,3.6299338340759277,0.2687719166278839,-3.778409957885742
7775.0,3.674802780151367,-10.703545570373535,0.6999403238296509,-42.96554946899414,-72.50247955322266,2.8084425926208496,13.318800926208496,2.349461793899536,-4.674696445465088
7776.0,3.6753311157226562,-9.58969783782959,0.7294215559959412,-78.8714370727539,-103.56486511230469,-5.398116588592529,11.602362632751465,0.607742965221405,-9.312942504882812
7777.0,3.678062677383423,-8.520119667053223,0.7812076210975647,-92.75037384033203,-103.73046112060547,8.121481895446777,-0.9317985773086548,6.84088134765625,-4.364719867706299
7778.0,3.6852526664733887,-7.495880603790283,0.8789063692092896,-99.02875518798828,-111.84583282470703,-32.638118743896484,13.75174617767334,8.270146369934082,-26.893142700195312
7779.0,3.698728322982788,-6.5154266357421875,1.0422722101211548,-5.999111652374268,-66.82880401611328,0.5063142776489258,52.569828033447266,-5.737391948699951,22.698392868041992
7780.0,3.71976900100708,-5.57417631149292,1.250059962272644,86.2510986328125,60.97820281982422,19.8516902923584,38.92385482788086,-27.17698860168457,33.496734619140625
7957.0,4.5750956535339355,-48.749473571777344,0.8318063020706177,10.995208740234375,33.489315032958984,1.1566401720046997,-0.7602609395980835,0.009302448481321335,-0.6896929144859314
7958.0,4.57503080368042,-46.292510986328125,0.8262754678726196,7.796588897705078,28.99814224243164,-0.9888548254966736,-0.9545679688453674,0.011737443506717682,-0.20185421407222748
7959.0,4.57496452331543,-43.9222412109375,0.8164540529251099,5.978333473205566,25.112913131713867,0.8782147765159607,-1.2613600492477417,0.009956547059118748,-0.67758709192276
7960.0,4.57489538192749,-41.635589599609375,0.8036393523216248,3.2554948329925537,21.72300910949707,-0.8201398253440857,-1.4039279222488403,0.03919507563114166,-0.1678803265094757
7961.0,4.574821949005127,-39.42959213256836,0.7888635396957397,1.801306962966919,18.70940589904785,0.7235207557678223,-1.6629599332809448,0.015896888449788094,-0.6272557377815247
7962.0,4.574744701385498,-37.301387786865234,0.7729220986366272,-0.6683051586151123,15.971054077148438,-0.6795955300331116,-1.7975749969482422,0.05749750882387161,-0.21491263806819916
7963.0,4.5746684074401855,-35.248233795166016,0.7564738988876343,-2.2453396320343018,13.513527870178223,0.6207500100135803,-1.8844099044799805,0.05013817921280861,-0.48912835121154785
7964.0,4.574588298797607,-33.267459869384766,0.7400369644165039,-4.553177356719971,11.089364051818848,-0.4098818302154541,-2.1732633113861084,0.07329558581113815,-0.24195457994937897
7965.0,4.574506759643555,-31.356523513793945,0.7240443825721741,-6.036174297332764,8.890969276428223,0.4866194725036621,-2.1628739833831787,0.016236381605267525,-0.4819781184196472
7966.0,4.574428081512451,-29.51295280456543,0.7088495492935181,-8.181648254394531,6.499518394470215,-0.29462459683418274,-2.2758867740631104,0.05381590500473976,-0.3075333535671234
7967.0,4.574347972869873,-27.734363555908203,0.6947621703147888,-9.882610321044922,4.461580753326416,0.3316873013973236,-2.3857028484344482,0.013753785751760006,-0.3744822144508362
7968.0,4.57426643371582,-26.01846694946289,0.6820339560508728,-11.986499786376953,2.177320718765259,-0.24027541279792786,-2.5286853313446045,0.08607922494411469,-0.39079663157463074
7969.0,4.574184417724609,-24.363056182861328,0.6708929538726807,-13.742250442504883,-0.19741696119308472,0.23722122609615326,-2.5914974212646484,0.05977075919508934,-0.37863487005233765
7970.0,4.574102401733398,-22.76600456237793,0.6615561842918396,-15.961424827575684,-2.914820671081543,-0.20543387532234192,-2.6863882541656494,0.12872928380966187,-0.34782296419143677
7971.0,4.574024677276611,-21.225250244140625,0.6542232036590576,-18.076509475708008,-5.922573566436768,0.01860995776951313,-2.6211955547332764,-0.11934738606214523,-0.42203909158706665
7972.0,4.573948383331299,-19.738813400268555,0.6490886211395264,-20.200071334838867,-8.447078704833984,-0.04333939775824547,-2.7240805625915527,0.18890418112277985,-0.42013314366340637
7973.0,4.573876857757568,-18.30478858947754,0.6463198065757751,-22.63125228881836,-12.166176795959473,0.07567902654409409,-2.477572202682495,-0.019030533730983734,-0.5573201775550842
7974.0,4.573812007904053,-16.921340942382812,0.6461153030395508,-25.004074096679688,-15.668859481811523,-0.10397972166538239,-2.3597333431243896,0.3460635840892792,-0.5678090453147888
7975.0,4.573754787445068,-15.586691856384277,0.6486510634422302,-27.87002182006836,-20.23021697998047,-0.07039492577314377,-2.099212884902954,-0.23581740260124207,-0.7855678200721741
7976.0,4.573711395263672,-14.29914665222168,0.6541418433189392,-30.543670654296875,-25.07406234741211,0.261489599943161,-1.7844197750091553,0.46192291378974915,-1.065485954284668
7977.0,4.573713779449463,-13.057062149047852,0.6627962589263916,-34.5855712890625,-32.04317855834961,-0.51601642370224,0.06855320185422897,-0.0037216173950582743,-1.3538388013839722
7978.0,4.573795795440674,-11.858948707580566,0.6752061247825623,-39.96273422241211,-48.10650634765625,-0.16501440107822418,2.3133108615875244,1.5881121158599854,-4.824482440948486
7979.0,4.5741190910339355,-10.703359603881836,0.6925625801086426,-52.29659652709961,-66.91348266601562,0.35295793414115906,13.791670799255371,1.2605528831481934,-2.9154722690582275
7980.0,4.574489116668701,-9.588929176330566,0.717264711856842,-60.2022705078125,-91.50007629394531,-2.889065742492676,11.810927391052246,2.612400770187378,-10.955192565917969
7981.0,4.576320648193359,-8.516623497009277,0.7573432326316833,-91.87049102783203,-103.87062072753906,6.211163520812988,0.2329380363225937,0.3633117079734802,-1.1454414129257202
7982.0,4.582376956939697,-7.487809181213379,0.8270086646080017,-102.30744934082031,-114.41179656982422,-17.830575942993164,5.437018394470215,11.824493408203125,-20.01161003112793
7983.0,4.593555927276611,-6.500354290008545,0.9441927671432495,-90.27729034423828,-115.03782653808594,-53.15709686279297,38.114837646484375,2.3530752658843994,-7.943511486053467
7984.0,4.611698627471924,-5.551665306091309,1.1092662811279297,14.585981369018555,-7.760964393615723,13.164299964904785,60.17841339111328,-11.20400333404541,22.517549514770508
8161.0,5.507617950439453,-48.749473571777344,0.8318170309066772,10.774179458618164,33.18362808227539,1.023667335510254,-0.9311090707778931,-0.024174047634005547,-0.6208104491233826
8162.0,5.507541179656982,-46.292518615722656,0.8263253569602966,7.7340006828308105,28.741559982299805,-0.911013126373291,-1.160119652748108,-0.0059914663434028625,-0.19078944623470306
8163.0,5.507461071014404,-43.922264099121094,0.8165740966796875,6.15095853805542,25.012636184692383,0.8339458107948303,-1.506075382232666,-0.030154243111610413,-0.704585611820221
8164.0,5.5073771476745605,-41.6356086730957,0.8038497567176819,3.5322556495666504,21.68877410888672,-0.6109218001365662,-1.6791493892669678,-0.01232829038053751,-0.2172790914773941
8165.0,5.507289886474609,-39.42961502075195,0.7891751527786255,1.8871023654937744,18.60340690612793,0.6403403878211975,-2.003675699234009,0.055363986641168594,-0.6456021666526794
8166.0,5.507197856903076,-37.30141830444336,0.7733379006385803,-0.4759542942047119,15.925889015197754,-0.527906596660614,-2.20033860206604,0.07570374757051468,-0.22021637856960297
8167.0,5.507106304168701,-35.24826431274414,0.7569897174835205,-2.206743001937866,13.376784324645996,0.3652220368385315,-2.303755044937134,0.03443608805537224,-0.49085766077041626
8168.0,5.5070109367370605,-33.26749038696289,0.7406437397003174,-4.322859287261963,11.029281616210938,-0.3081357479095459,-2.5642738342285156,0.026574375107884407,-0.24761292338371277
8169.0,5.506913185119629,-31.356563568115234,0.7247266173362732,-6.0371317863464355,8.787476539611816,0.21965190768241882,-2.592724084854126,0.023786719888448715,-0.4716576933860779
8170.0,5.506819725036621,-29.512989044189453,0.7095841765403748,-8.212485313415527,6.333518028259277,-0.3431103527545929,-2.7561285495758057,0.03616485372185707,-0.24440918862819672
8171.0,5.506722450256348,-27.734407424926758,0.6955217123031616,-9.811707496643066,4.366240978240967,0.13769209384918213,-2.878538131713867,0.03863181546330452,-0.344360888004303
8172.0,5.506626129150391,-26.018510818481445,0.6827821135520935,-11.71192741394043,2.157418966293335,0.033705178648233414,-3.0036253929138184,0.03808951750397682,-0.4090767204761505
8173.0,5.506528854370117,-24.36310577392578,0.6715853214263916,-13.742379188537598,-0.3516855239868164,-0.24695076048374176,-3.146169900894165,0.08480779826641083,-0.43236082792282104
8174.0,5.506432056427002,-22.76605224609375,0.6621357798576355,-15.4072265625,-2.7602884769439697,0.336638480424881,-3.266968011856079,0.012611477635800838,-0.3005208671092987
8175.0,5.506336688995361,-21.22530174255371,0.6546195149421692,-17.842369079589844,-5.7695112228393555,-0.3064732849597931,-3.186197280883789,-0.11801689118146896,-0.48485517501831055
8176.0,5.506244659423828,-19.738866806030273,0.649211585521698,-19.83888816833496,-8.448196411132812,0.2702336311340332,-3.2402403354644775,0.08592510968446732,-0.3474547564983368
8177.0,5.506156921386719,-18.304841995239258,0.6460628509521484,-22.43634033203125,-11.797234535217285,-0.44438666105270386,-3.17421555519104,0.18361710011959076,-0.641316831111908
8178.0,5.506073951721191,-16.921388626098633,0.6453354358673096,-24.763410568237305,-15.584657669067383,0.42978447675704956,-3.0080602169036865,0.15049882233142853,-0.5555009245872498
8179.0,5.5059967041015625,-15.586731910705566,0.6471819281578064,-27.887086868286133,-19.713937759399414,-0.7884789109230042,-2.982451915740967,0.10476695001125336,-0.9412651658058167
8180.0,5.505936145782471,-14.299177169799805,0.6517617702484131,-30.202693939208984,-24.957277297973633,0.9046831727027893,-2.2974894046783447,0.2573047876358032,-0.9255431890487671
8181.0,5.505912780761719,-13.057075500488281,0.6592380404472351,-34.607425689697266,-30.700483322143555,-1.1185694932937622,-1.608931541442871,0.42680689692497253,-1.232814908027649
8182.0,5.505978107452393,-11.858898162841797,0.6699243187904358,-39.449344635009766,-44.07247543334961,0.4675927758216858,2.8022477626800537,1.1969739198684692,-3.6460909843444824
8183.0,5.506179332733154,-10.703169822692871,0.6846820116043091,-53.819984436035156,-59.133811950683594,-0.5821675658226013,7.3944783210754395,1.7960901260375977,-3.3774893283843994
8184.0,5.5065507888793945,-9.588456153869629,0.704956591129303,-52.002315521240234,-73.41583251953125,-0.0640343651175499,14.251219749450684,2.390606164932251,-4.33805513381958
8185.0,5.50753116607666,-8.514132499694824,0.7346315383911133,-89.08201599121094,-101.83747863769531,-1.052207112312317,9.539520263671875,1.6012660264968872,-7.383822917938232
8186.0,5.511439323425293,-7.4811553955078125,0.7821617722511292,-101.08456420898438,-104.68251037597656,1.399552345275879,2.873483419418335,5.901130199432373,-3.314148426055908
8187.0,5.519820690155029,-6.488479137420654,0.8578425049781799,-107.09728240966797,-109.29920196533203,-22.101943969726562,10.229622840881348,17.254600524902344,-22.307510375976562
8188.0,5.532898426055908,-5.532958030700684,0.9699608087539673,-89.53416442871094,-90.51927947998047,-41.42788314819336,44.667022705078125,-2.8924200534820557,3.722949743270874
8365.0,6.474194049835205,-48.74947738647461,0.8318299651145935,10.757789611816406,32.88579177856445,0.9486287832260132,-1.0967117547988892,-0.0008063637069426477,-0.605135977268219
8366.0,6.474104881286621,-46.292537689208984,0.8263863921165466,7.749832630157471,28.463703155517578,-1.0061036348342896,-1.3572102785110474,0.000533750222530216,-0.21713139116764069
8367.0,6.474009990692139,-43.92227554321289,0.816721498966217,6.117855072021484,24.77389907836914,0.7820978760719299,-1.7438527345657349,-0.05204268917441368,-0.7001854181289673
8368.0,6.473911762237549,-41.63563919067383,0.8041081428527832,3.4016475677490234,21.376314163208008,-0.8103963136672974,-1.9635449647903442,-0.021397985517978668,-0.17643584311008453
8369.0,6.473809242248535,-39.42964553833008,0.7895587682723999,1.82358717918396,18.389039993286133,0.6060506701469421,-2.2855851650238037,0.05282905325293541,-0.661842405796051
8370.0,6.4737019538879395,-37.301456451416016,0.7738510370254517,-0.4848126769065857,15.777320861816406,-0.5515940189361572,-2.531994581222534,0.011986589059233665,-0.24673274159431458
8371.0,6.4735941886901855,-35.2483024597168,0.7576273679733276,-2.145001173019409,13.235831260681152,0.35397931933403015,-2.680776834487915,0.01010048482567072,-0.529297411441803
8372.0,6.473483562469482,-33.26754379272461,0.7413941025733948,-4.239880084991455,10.921050071716309,-0.39233046770095825,-2.969695568084717,0.11333017796278,-0.23818954825401306
8373.0,6.473370552062988,-31.35660171508789,0.7255730032920837,-5.734222412109375,8.813799858093262,0.4277800917625427,-3.036186456680298,0.08585815876722336,-0.4964940845966339
8374.0,6.473259925842285,-29.513042449951172,0.7105001211166382,-7.816140174865723,6.430909156799316,-0.22492358088493347,-3.203813314437866,0.006000362802296877,-0.25810155272483826
8375.0,6.473148822784424,-27.73446273803711,0.6964726448059082,-9.458724021911621,4.287435531616211,0.2121046781539917,-3.3803465366363525,0.04761883243918419,-0.37265485525131226
8376.0,6.473036766052246,-26.018569946289062,0.6837280988693237,-11.319396018981934,2.2235777378082275,-0.0010463142534717917,-3.5494744777679443,0.07887726277112961,-0.33568572998046875
8377.0,6.472923278808594,-24.363162994384766,0.6724749207496643,-13.36503791809082,-0.3291187584400177,0.020161643624305725,-3.645742893218994,0.13711370527744293,-0.38293221592903137
8378.0,6.472811698913574,-22.76611328125,0.6629025936126709,-15.365388870239258,-2.897979259490967,-0.03720274940133095,-3.736520528793335,0.019672898575663567,-0.34452173113822937
8379.0,6.472701072692871,-21.225364685058594,0.6551845669746399,-17.222076416015625,-5.4817728996276855,0.13059650361537933,-3.802175283432007,-0.03086281009018421,-0.49120470881462097
8380.0,6.472591400146484,-19.73893165588379,0.6494740843772888,-19.443605422973633,-8.384636878967285,0.019005702808499336,-3.925213098526001,0.08620304614305496,-0.4615829586982727
8381.0,6.472484111785889,-18.304906845092773,0.6459038853645325,-21.865402221679688,-11.546365737915039,-0.05873939022421837,-3.8682022094726562,0.15892885625362396,-0.6699568033218384
8382.0,6.472381114959717,-16.921449661254883,0.6446027159690857,-24.619613647460938,-15.249457359313965,0.08230552077293396,-3.871183156967163,0.058034930378198624,-0.6231632232666016
8383.0,6.472283363342285,-15.5867919921875,0.6456965804100037,-27.33226203918457,-19.399642944335938,-0.022752761840820312,-3.6884138584136963,0.21330049633979797,-0.7870087623596191
8384.0,6.472203254699707,-14.299225807189941,0.6492917537689209,-30.43275260925293,-24.494091033935547,-0.11399585753679276,-3.3300557136535645,0.190008744597435,-0.8818897008895874
8385.0,6.472156047821045,-13.057112693786621,0.6555099487304688,-33.16360855102539,-29.99528694152832,0.18430989980697632,-2.307213544845581,0.6272914409637451,-1.0508190393447876
8386.0,6.472178936004639,-11.858864784240723,0.6644726395606995,-40.13206100463867,-38.09797668457031,-0.6924769878387451,0.6089157462120056,0.8229380249977112,-2.306692361831665
8387.0,6.472278118133545,-10.703017234802246,0.6766623854637146,-47.38441467285156,-52.644630432128906,0.23555372655391693,3.9166314601898193,1.9632586240768433,-3.9426958560943604
8388.0,6.472610950469971,-9.588146209716797,0.6929380893707275,-58.39169692993164,-68.79586791992188,-0.15420223772525787,13.874982833862305,2.5362720489501953,-3.3544199466705322
8389.0,6.473133563995361,-8.51285457611084,0.7147598266601562,-73.16678619384766,-85.61194610595703,-1.2820836305618286,19.527429580688477,3.6178457736968994,-7.002857685089111
8390.0,6.474857807159424,-7.476775169372559,0.7461364269256592,-98.23869323730469,-102.43870544433594,3.561424732208252,4.082813739776611,2.321983575820923,-3.2895777225494385
8391.0,6.479857444763184,-6.479866981506348,0.7924443483352661,-105.55805969238281,-105.14191436767578,-6.718551158905029,4.727041244506836,6.505019664764404,-6.479411602020264
8392.0,6.4883952140808105,-5.519807815551758,0.8578128814697266,-108.95142364501953,-106.2271728515625,-22.177125930786133,10.809627532958984,22.135068893432617,-17.27496337890625
8569.0,7.476066589355469,-48.74948501586914,0.831845760345459,10.655301094055176,32.56594467163086,1.0753899812698364,-1.24189293384552,-0.041263531893491745,-0.6080563068389893
8570.0,7.475963592529297,-46.29254913330078,0.8264600038528442,7.664378643035889,28.17765998840332,-0.9077321290969849,-1.5692063570022583,-0.031464751809835434,-0.25945916771888733
8571.0,7.475856304168701,-43.922306060791016,0.8168991804122925,6.13077449798584,24.529359817504883,0.8639839887619019,-2.024205207824707,-0.01691218465566635,-0.7296150922775269
8572.0,7.475742340087891,-41.63566970825195,0.8044194579124451,3.526001453399658,21.22838020324707,-0.7058352828025818,-2.302419424057007,-0.051797546446323395,-0.13445882499217987
8573.0,7.475625038146973,-39.429683685302734,0.7900205254554749,1.9607239961624146,18.25372314453125,0.6330924034118652,-2.6217644214630127,-0.018316121771931648,-0.606264054775238
8574.0,7.475502014160156,-37.30149841308594,0.7744697332382202,-0.31337764859199524,15.658684730529785,-0.515712320804596,-2.917201042175293,-0.012966183945536613,-0.25839388370513916
8575.0,7.47537899017334,-35.24835205078125,0.7583978176116943,-1.8715780973434448,13.211103439331055,0.5741444230079651,-3.093172311782837,-0.00020974772633053362,-0.5443125367164612
8576.0,7.475250720977783,-33.26759338378906,0.7423039078712463,-4.114782810211182,10.781866073608398,-0.456731379032135,-3.393738269805908,0.07616299390792847,-0.225948303937912
8577.0,7.475123882293701,-31.35666275024414,0.7266011238098145,-5.580090045928955,8.701007843017578,0.30454790592193604,-3.4707224369049072,0.04773253574967384,-0.5113795399665833
8578.0,7.4749979972839355,-29.51309585571289,0.7116180062294006,-7.571408271789551,6.352646827697754,-0.32263410091400146,-3.6578080654144287,-0.0005164812901057303,-0.22132311761379242
8579.0,7.474869728088379,-27.73452377319336,0.6976422071456909,-9.267474174499512,4.063411712646484,0.1389191597700119,-3.8665640354156494,-0.007562067825347185,-0.3845479190349579
8580.0,7.474742412567139,-26.01864242553711,0.6849027276039124,-11.06216049194336,2.1612350940704346,-0.11251123249530792,-4.064236164093018,0.05095153674483299,-0.31326043605804443
8581.0,7.474612712860107,-24.363235473632812,0.6735967993736267,-12.80721378326416,-0.25340962409973145,0.09850180894136429,-4.2336602210998535,0.095488041639328,-0.3380308449268341
8582.0,7.474483966827393,-22.766189575195312,0.6638980507850647,-14.769645690917969,-2.8095877170562744,-0.07680133730173111,-4.309244155883789,0.09188997000455856,-0.28270527720451355
8583.0,7.474357604980469,-21.225440979003906,0.6559664607048035,-16.858604431152344,-5.518630504608154,-0.008265617303550243,-4.407222747802734,0.03892512246966362,-0.41023653745651245
8584.0,7.474228858947754,-19.739013671875,0.649937093257904,-18.97553825378418,-8.284140586853027,0.06223025172948837,-4.549914836883545,0.20858797430992126,-0.449815571308136
8585.0,7.474104881286621,-18.304990768432617,0.6459177136421204,-21.27538299560547,-11.343512535095215,-0.03808295354247093,-4.573133945465088,0.1741524040699005,-0.5531406402587891
8586.0,7.473979473114014,-16.921533584594727,0.6440137028694153,-23.81371307373047,-14.89787483215332,0.22677434980869293,-4.731866836547852,0.1436111330986023,-0.575477659702301
8587.0,7.473862171173096,-15.586869239807129,0.6443153023719788,-26.685787200927734,-18.972341537475586,-0.29198727011680603,-4.397312641143799,0.07817515730857849,-0.6734527945518494
8588.0,7.473759651184082,-14.299294471740723,0.6468927264213562,-29.32840347290039,-23.645723342895508,0.26746252179145813,-4.1271538734436035,0.44458597898483276,-0.7943043112754822
8589.0,7.473689556121826,-13.057160377502441,0.6518068313598633,-32.897525787353516,-28.97125244140625,-0.409688264131546,-2.9205751419067383,0.4658573269844055,-0.9428020119667053
8590.0,7.4736552238464355,-11.858872413635254,0.65909343957901,-37.136226654052734,-34.25417709350586,0.24397805333137512,-2.147655725479126,0.8669015169143677,-1.459094524383545
8591.0,7.4737043380737305,-10.702927589416504,0.6688862442970276,-43.718875885009766,-46.09123229980469,-1.339828372001648,1.7136117219924927,1.7442799806594849,-3.244222640991211
8592.0,7.473892688751221,-9.587897300720215,0.6816310882568359,-56.92945098876953,-59.76422119140625,1.1646422147750854,8.80252742767334,2.9773998260498047,-4.145565032958984
8593.0,7.474246025085449,-8.512320518493652,0.6978539228439331,-64.05734252929688,-67.78179168701172,-2.382673501968384,13.01546573638916,2.336193323135376,-3.0604097843170166
8594.0,7.4748759269714355,-7.474884510040283,0.718573808670044,-84.48543548583984,-84.71172332763672,0.5709334015846252,18.904630661010742,6.375710487365723,-6.3428730964660645
8595.0,7.476761341094971,-6.474864482879639,0.7461119294166565,-102.2286376953125,-98.40974426269531,3.1016573905944824,3.7295401096343994,3.3879568576812744,-2.349435567855835
8596.0,7.48109769821167,-5.511427879333496,0.7821282744407654,-104.38169860839844,-100.48262023925781,2.078765869140625,2.335752248764038,3.854555368423462,-5.932193279266357
8773.0,8.514525413513184,-48.74948501586914,0.8318643569946289,10.622249603271484,32.193843841552734,1.1505321264266968,-1.3955343961715698,-0.07791700959205627,-0.6230301260948181
8774.0,8.514408111572266,-46.292572021484375,0.8265476822853088,7.580016136169434,27.76765251159668,-0.9908581972122192,-1.7852660417556763,-0.04748291149735451,-0.21148446202278137
8775.0,8.514286994934082,-43.922332763671875,0.817110002040863,6.098873615264893,24.191007614135742,0.7891005873680115,-2.2422866821289062,0.025347115471959114,-0.7066846489906311
8776.0,8.514159202575684,-41.635711669921875,0.8047887086868286,3.6506800651550293,20.99342155456543,-0.6596665978431702,-2.5892412662506104,-0.045099373906850815,-0.20084121823310852
8777.0,8.514025688171387,-39.42972946166992,0.7905687689781189,2.0391998291015625,18.062469482421875,0.6180551648139954,-2.9711880683898926,-0.07067186385393143,-0.5947230458259583
8778.0,8.513886451721191,-37.30154800415039,0.7752038240432739,-0.24089454114437103,15.443017959594727,-0.5304071307182312,-3.292367935180664,-0.01896323822438717,-0.2567615211009979
8779.0,8.513747215270996,-35.248409271240234,0.7593136429786682,-1.7591722011566162,13.021109580993652,0.49307042360305786,-3.5192713737487793,0.0032121087424457073,-0.5515367984771729
8780.0,8.513602256774902,-33.26765441894531,0.7433887124061584,-3.9553186893463135,10.633431434631348,-0.465297669172287,-3.825765609741211,-0.022927118465304375,-0.18779519200325012
8781.0,8.513459205627441,-31.356731414794922,0.7278319001197815,-5.3309245109558105,8.647665977478027,0.44490882754325867,-3.951885461807251,0.03675257787108421,-0.43477579951286316
8782.0,8.513319969177246,-29.513168334960938,0.7129617929458618,-7.380280494689941,6.221714496612549,-0.45175594091415405,-4.17912483215332,0.09060344099998474,-0.16375340521335602
8783.0,8.513175964355469,-27.73459243774414,0.6990575194358826,-8.832140922546387,4.004667282104492,0.22769354283809662,-4.396338939666748,0.015145019628107548,-0.3399701416492462
8784.0,8.513031959533691,-26.018720626831055,0.6863383650779724,-10.5423002243042,2.1328370571136475,-0.08334005624055862,-4.583408832550049,0.050744496285915375,-0.3172915279865265
8785.0,8.512887001037598,-24.363323211669922,0.6749904155731201,-12.392205238342285,-0.3069894015789032,0.0937940925359726,-4.8222737312316895,0.15442286431789398,-0.36960867047309875
8786.0,8.512743949890137,-22.766279220581055,0.6651719212532043,-14.287126541137695,-2.739396095275879,-0.025980455800890923,-4.895752429962158,0.1901857703924179,-0.3001157343387604
8787.0,8.512598991394043,-21.225534439086914,0.6570252776145935,-16.195777893066406,-5.404464244842529,0.17986296117305756,-5.131981372833252,0.17206963896751404,-0.3562133014202118
8788.0,8.51245403289795,-19.739107131958008,0.6506701111793518,-18.40064811706543,-8.25211238861084,-0.21485531330108643,-5.213743686676025,0.2317376434803009,-0.34942227602005005
8789.0,8.512309074401855,-18.305086135864258,0.6461943984031677,-20.459436416625977,-11.085297584533691,0.10322786867618561,-5.357918739318848,0.26172634959220886,-0.4755402207374573
8790.0,8.512165069580078,-16.921632766723633,0.6436756253242493,-22.733823776245117,-14.570405960083008,-0.011195901781320572,-5.374989032745361,0.2767503559589386,-0.5365442633628845
8791.0,8.512027740478516,-15.586968421936035,0.6431756019592285,-25.246986389160156,-18.215347290039062,0.13033044338226318,-5.282968521118164,0.27418044209480286,-0.6321000456809998
8792.0,8.511905670166016,-14.299385070800781,0.6447286009788513,-27.932605743408203,-22.59248161315918,0.03660767897963524,-4.855499267578125,0.4309372901916504,-0.6774516105651855
8793.0,8.51180362701416,-13.057233810424805,0.6483493447303772,-31.56744384765625,-27.46992301940918,0.09171772748231888,-4.276660442352295,0.5354012846946716,-0.9225068092346191
8794.0,8.511734962463379,-11.858917236328125,0.6540146470069885,-34.23618698120117,-32.662906646728516,-0.24352285265922546,-3.2421231269836426,0.6723707914352417,-1.0639227628707886
8795.0,8.511722564697266,-10.702905654907227,0.6616901755332947,-40.63864517211914,-39.370609283447266,-0.0444689616560936,-0.827938973903656,1.4089747667312622,-1.8640539646148682
8796.0,8.511788368225098,-9.587735176086426,0.6714373826980591,-47.564083099365234,-48.885799407958984,-0.6150364279747009,2.2030372619628906,2.640374183654785,-2.9406862258911133
8797.0,8.511992454528809,-8.51200008392334,0.6834573149681091,-60.599369049072266,-61.086421966552734,1.3664084672927856,9.982544898986816,3.454052209854126,-3.35107421875
8798.0,8.512314796447754,-7.474265098571777,0.6978284120559692,-67.7418441772461,-64.68433380126953,-2.5912437438964844,13.098001480102539,3.0971620082855225,-2.3515310287475586
8799.0,8.51285457611084,-6.473160266876221,0.7147244811058044,-85.45227813720703,-73.52429962158203,-0.9117640852928162,19.45624542236328,6.85444974899292,-3.4384942054748535
8800.0,8.514128684997559,-5.507565021514893,0.7346022129058838,-101.45551300048828,-89.65387725830078,-1.7125179767608643,9.399720191955566,7.037814140319824,-1.3709365129470825
8977.0,9.590903282165527,-48.74949645996094,0.8318858742713928,10.41478443145752,31.65677261352539,1.0535556077957153,-1.5259344577789307,-0.05248388275504112,-0.6375746130943298
8978.0,9.590774536132812,-46.292598724365234,0.8266505599021912,7.497039318084717,27.316469192504883,-1.0301247835159302,-1.9751766920089722,-0.06713986396789551,-0.14620435237884521
8979.0,9.590638160705566,-43.922367095947266,0.8173571228981018,6.074921131134033,23.868131637573242,0.857300877571106,-2.4822442531585693,-0.05662420019507408,-0.5927940011024475
8980.0,9.590495109558105,-41.63576126098633,0.8052216172218323,3.385570764541626,20.463376998901367,-0.8793507218360901,-2.904653787612915,-0.05506861209869385,-0.1635139137506485
8981.0,9.590347290039062,-39.42978286743164,0.7912116646766663,2.1221179962158203,17.859939575195312,0.6865043640136719,-3.3074991703033447,-0.011205202899873257,-0.6176146864891052
8982.0,9.590193748474121,-37.30160903930664,0.7760658860206604,-0.08102133125066757,15.241914749145508,-0.4893457591533661,-3.6706295013427734,0.07762540131807327,-0.22423291206359863
8983.0,9.590035438537598,-35.248477935791016,0.7603911757469177,-1.6403541564941406,12.764168739318848,0.4044523537158966,-3.9530301094055176,0.09543932974338531,-0.5637515187263489
8984.0,9.589875221252441,-33.26772689819336,0.7446669340133667,-3.636348247528076,10.539896965026855,-0.4101732075214386,-4.294764995574951,-0.00819739792495966,-0.1771964132785797
8985.0,9.589716911315918,-31.356809616088867,0.7292866706848145,-5.01084566116333,8.487198829650879,0.4948787987232208,-4.440868377685547,-0.024730412289500237,-0.4030328392982483
8986.0,9.589561462402344,-29.513248443603516,0.7145582437515259,-6.9854631423950195,6.183773517608643,-0.38829824328422546,-4.686965465545654,0.06994222849607468,-0.2113846391439438
8987.0,9.589404106140137,-27.734682083129883,0.7007498145103455,-8.312712669372559,4.024578094482422,0.36125853657722473,-4.933036804199219,0.09722281992435455,-0.3664470314979553
8988.0,9.58924388885498,-26.01881217956543,0.688071608543396,-10.163463592529297,1.9267741441726685,-0.29252442717552185,-5.143123149871826,0.10401774942874908,-0.3092758357524872
8989.0,9.589083671569824,-24.363420486450195,0.6766984462738037,-11.670465469360352,-0.2663554847240448,0.2327105700969696,-5.416774272918701,0.10517490655183792,-0.3833491802215576
8990.0,9.588923454284668,-22.76638412475586,0.6667749881744385,-13.682936668395996,-2.788029670715332,-0.2866637408733368,-5.515967845916748,0.07307103276252747,-0.2980441749095917
8991.0,9.588763236999512,-21.225645065307617,0.6584257483482361,-15.344939231872559,-5.290834426879883,0.19355608522891998,-5.75213623046875,0.14584408700466156,-0.3794250190258026
8992.0,9.588603019714355,-19.739219665527344,0.6517518162727356,-17.425111770629883,-8.008811950683594,-0.26156795024871826,-5.828003406524658,0.1710640788078308,-0.3598419427871704
8993.0,9.58843994140625,-18.305204391479492,0.6468262076377869,-19.275896072387695,-10.781920433044434,0.2233058363199234,-6.0443949699401855,0.18098773062229156,-0.5337420105934143
8994.0,9.588278770446777,-16.921751022338867,0.6437024474143982,-21.95280647277832,-14.329160690307617,-0.3570890426635742,-6.106784343719482,0.2567395269870758,-0.4625127613544464
8995.0,9.588120460510254,-15.58708381652832,0.6424171924591064,-23.867753982543945,-17.764007568359375,0.21287144720554352,-6.007603645324707,0.3156038224697113,-0.568818986415863
8996.0,9.587977409362793,-14.299497604370117,0.6429729461669922,-26.813020706176758,-21.733043670654297,-0.4362187385559082,-5.75160026550293,0.39565154910087585,-0.661724328994751
8997.0,9.587851524353027,-13.057329177856445,0.6453497409820557,-28.742521286010742,-25.956342697143555,0.34821754693984985,-5.349119186401367,0.38558435440063477,-0.8864101767539978
8998.0,9.587754249572754,-11.858992576599121,0.649487316608429,-32.833553314208984,-30.705793380737305,-0.39921271800994873,-4.075705051422119,0.6807632446289062,-0.9802021384239197
8999.0,9.587687492370605,-10.702935218811035,0.6552860140800476,-35.08282470703125,-34.86378479003906,0.44599413871765137,-3.486654043197632,0.9400601983070374,-1.164809226989746
9000.0,9.587677955627441,-9.58768367767334,0.6626176238059998,-41.71358108520508,-42.03408432006836,-0.9817255735397339,-0.032083794474601746,2.079292058944702,-2.0254838466644287
9001.0,9.587733268737793,-8.511801719665527,0.6714012622833252,-48.615142822265625,-47.824058532714844,-0.5244835019111633,2.267155647277832,2.8238279819488525,-2.5610454082489014
9002.0,9.58790111541748,-7.473911762237549,0.6815698146820068,-59.22452163696289,-57.19741439819336,1.3451279401779175,8.986100196838379,4.133516788482666,-3.028682231903076
9003.0,9.588150978088379,-6.472634315490723,0.692865788936615,-68.35220336914062,-58.499839782714844,-0.3979979157447815,14.191657066345215,3.5974087715148926,-2.7215585708618164
9004.0,9.588465690612793,-5.506579399108887,0.7048903107643127,-72.67324829101562,-51.90671157836914,0.6555585861206055,14.516090393066406,4.462555408477783,-2.3065717220306396
9181.0,10.706588745117188,-48.749507904052734,0.8319110870361328,10.26694393157959,31.126482009887695,1.0803266763687134,-1.6745891571044922,-0.029078366234898567,-0.6427565217018127
9182.0,10.70644474029541,-46.292625427246094,0.8267703652381897,7.407108306884766,26.84676742553711,-0.9303155541419983,-2.186159133911133,-0.04067182540893555,-0.17789211869239807
9183.0,10.706297874450684,-43.92241668701172,0.817644476890564,6.068061351776123,23.48992156982422,0.977512776851654,-2.7554492950439453,-0.040636226534843445,-0.6200917363166809
9184.0,10.706138610839844,-41.635807037353516,0.805724561214447,3.486269235610962,20.154890060424805,-0.7017717957496643,-3.218233346939087,0.00692810770124197,-0.12359815090894699
9185.0,10.705976486206055,-39.42984390258789,0.7919583916664124,2.1332995891571045,17.546052932739258,0.6576125621795654,-3.6287617683410645,0.09240823984146118,-0.6148682236671448
9186.0,10.705803871154785,-37.30168533325195,0.777068018913269,-0.07458490878343582,14.906432151794434,-0.5889158248901367,-4.06108283996582,0.08201812952756882,-0.14207430183887482
9187.0,10.705629348754883,-35.24855041503906,0.7616457343101501,-1.4180362224578857,12.560616493225098,0.48001959919929504,-4.3423542976379395,0.04767207056283951,-0.5212750434875488
9188.0,10.70545768737793,-33.2678108215332,0.746157705783844,-3.2884256839752197,10.359787940979004,-0.3818567395210266,-4.713576793670654,0.05902818217873573,-0.20187810063362122
9189.0,10.705282211303711,-31.35689926147461,0.7309877872467041,-4.636520862579346,8.279276847839355,0.3639431297779083,-4.922875881195068,0.01896164007484913,-0.46785280108451843
9190.0,10.705110549926758,-29.513349533081055,0.7164338827133179,-6.5113725662231445,6.053093433380127,-0.3491567373275757,-5.155418872833252,0.018735723569989204,-0.30219173431396484
9191.0,10.704940795898438,-27.734786987304688,0.702751100063324,-7.899550914764404,3.9314990043640137,0.23865364491939545,-5.472352981567383,0.027919769287109375,-0.4396936595439911
9192.0,10.704766273498535,-26.018918991088867,0.6901406645774841,-9.624542236328125,1.8462622165679932,-0.2701735198497772,-5.669285297393799,0.0977516695857048,-0.2387463003396988
9193.0,10.704590797424316,-24.36353302001953,0.6787660121917725,-10.89418888092041,-0.21845076978206635,0.392457515001297,-5.928001403808594,0.13921387493610382,-0.37135905027389526
9194.0,10.704415321350098,-22.766498565673828,0.668759822845459,-12.740621566772461,-2.6399450302124023,-0.13476745784282684,-6.065407752990723,0.05900651961565018,-0.2688577175140381
9195.0,10.704238891601562,-21.225767135620117,0.6602302193641663,-14.450333595275879,-5.093836307525635,0.2057001292705536,-6.307819843292236,0.14492613077163696,-0.4098978638648987
9196.0,10.704062461853027,-19.739349365234375,0.6532606482505798,-16.31207275390625,-7.737797260284424,0.01481756754219532,-6.408092021942139,0.18520988523960114,-0.3110131025314331
9197.0,10.703882217407227,-18.305335998535156,0.6479096412658691,-18.28928565979004,-10.654182434082031,0.04166164994239807,-6.722317695617676,0.1967785507440567,-0.5679344534873962
9198.0,10.703703880310059,-16.92188835144043,0.6442122459411621,-20.161088943481445,-13.712278366088867,-0.013979100622236729,-6.770800590515137,0.22639885544776917,-0.5131644606590271
9199.0,10.703530311584473,-15.587221145629883,0.6421822905540466,-22.323768615722656,-17.040937423706055,0.12395529448986053,-6.677824974060059,0.23752786219120026,-0.5734453797340393
9200.0,10.703369140625,-14.299629211425781,0.6418004631996155,-24.32720947265625,-20.60124969482422,0.01379840262234211,-6.485291481018066,0.45270735025405884,-0.5782932639122009
9201.0,10.70322322845459,-13.057449340820312,0.6430184841156006,-27.161623001098633,-24.585573196411133,-0.23389551043510437,-5.901123523712158,0.46630483865737915,-0.6971797347068787
9202.0,10.703094482421875,-11.859088897705078,0.6457553505897522,-29.15233039855957,-28.237302780151367,0.25634273886680603,-5.4131879806518555,0.670891523361206,-0.6870083212852478
9203.0,10.702999114990234,-10.703003883361816,0.6498851776123047,-32.46999740600586,-32.659122467041016,-0.321125864982605,-3.8777809143066406,0.854037344455719,-0.8576402068138123
9204.0,10.702934265136719,-9.587696075439453,0.655236542224884,-34.85213851928711,-35.401607513427734,0.20593534409999847,-3.395232915878296,1.0857027769088745,-0.8847885131835938
9205.0,10.702910423278809,-8.511734008789062,0.6616020202636719,-39.296817779541016,-40.975101470947266,-0.2651398479938507,-0.7239304184913635,1.8120553493499756,-1.4451992511749268
9206.0,10.702935218811035,-7.473719596862793,0.6687726378440857,-46.022769927978516,-43.98090362548828,-1.451837420463562,1.9804389476776123,3.297452688217163,-1.7156200408935547
9207.0,10.703027725219727,-6.472296714782715,0.6765292882919312,-52.11874008178711,-47.254032135009766,0.331971675157547,3.9513871669769287,3.8308465480804443,-1.9335814714431763
9208.0,10.703186988830566,-5.506199836730957,0.6845331788063049,-58.82657241821289,-54.30428695678711,-1.0934034585952759,7.681999683380127,3.2806856632232666,-1.8357751369476318
9385.0,11.863015174865723,-48.749515533447266,0.8319405317306519,10.104121208190918,30.489423751831055,1.0354677438735962,-1.8142893314361572,-0.030750198289752007,-0.6854304671287537
9386.0,11.862860679626465,-46.29265594482422,0.8269094228744507,7.2747273445129395,26.259586334228516,-1.0046311616897583,-2.4030301570892334,0.004535850137472153,-0.2235388457775116
9387.0,11.862695693969727,-43.92245864868164,0.8179760575294495,5.898880481719971,22.90335464477539,0.795383095741272,-2.98329496383667,0.0060892244800925255,-0.7023912072181702
9388.0,11.862524032592773,-41.635868072509766,0.8063040375709534,3.516956090927124,19.720476150512695,-0.7339872121810913,-3.4904255867004395,-0.012187524698674679,-0.1556566208600998
9389.0,11.862343788146973,-39.429927825927734,0.7928186655044556,2.306610107421875,17.215431213378906,0.6301413178443909,-3.9302637577056885,0.07309770584106445,-0.6197865009307861
9390.0,11.86215877532959,-37.301761627197266,0.7782225012779236,0.1962357610464096,14.633607864379883,-0.5897639393806458,-4.422606945037842,0.0833578109741211,-0.14871372282505035
9391.0,11.861969947814941,-35.24864196777344,0.7630925178527832,-1.131698489189148,12.359893798828125,0.4809620976448059,-4.733906269073486,0.03755352273583412,-0.5082096457481384
9392.0,11.86177921295166,-33.26791000366211,0.7478810548782349,-3.0637950897216797,10.04630184173584,-0.4564864933490753,-5.067922115325928,0.05862652510404587,-0.1527044177055359
9393.0,11.861591339111328,-31.356998443603516,0.73296058177948,-4.239009380340576,8.07537841796875,0.3896469473838806,-5.343695640563965,0.06117819994688034,-0.4607481360435486
9394.0,11.861405372619629,-29.513458251953125,0.718617856502533,-6.059886455535889,5.896544933319092,-0.3134489059448242,-5.580250263214111,0.055359456688165665,-0.31325292587280273
9395.0,11.861220359802246,-27.734905242919922,0.7050966024398804,-7.344223499298096,3.8480894565582275,0.18387621641159058,-5.886396408081055,0.052755601704120636,-0.4002566933631897
9396.0,11.861031532287598,-26.019041061401367,0.6925878524780273,-8.939380645751953,1.8378390073776245,-0.20091460645198822,-6.1377339363098145,0.08702507615089417,-0.10758870095014572
9397.0,11.860841751098633,-24.36366081237793,0.6812437772750854,-10.35189437866211,-0.42658090591430664,0.1323520541191101,-6.378376483917236,0.10396014153957367,-0.3890298008918762
9398.0,11.860655784606934,-22.76663589477539,0.6711859107017517,-12.102481842041016,-2.7447431087493896,-0.3609454929828644,-6.620738506317139,0.05439234524965286,-0.2697470188140869
9399.0,11.860464096069336,-21.225908279418945,0.6625099182128906,-13.478584289550781,-5.0120320320129395,0.13023816049098969,-6.8733673095703125,0.1602025181055069,-0.38322335481643677
9400.0,11.860273361206055,-19.739500045776367,0.6552800536155701,-15.244889259338379,-7.6323018074035645,-0.20229801535606384,-7.015021324157715,0.2321229875087738,-0.3508770167827606
9401.0,11.860078811645508,-18.30548858642578,0.6495441794395447,-16.676719665527344,-10.255240440368652,0.1750122457742691,-7.269752025604248,0.21297892928123474,-0.5445883870124817
9402.0,11.859885215759277,-16.922042846679688,0.645322322845459,-18.627779006958008,-13.23170280456543,-0.24568866193294525,-7.265082836151123,0.2123177945613861,-0.48013836145401
9403.0,11.859699249267578,-15.58737850189209,0.642610490322113,-20.113664627075195,-16.218843460083008,0.17575134336948395,-7.212466716766357,0.18318690359592438,-0.4439275562763214
9404.0,11.85952377319336,-14.299776077270508,0.6413722634315491,-22.25688362121582,-19.559492111206055,-0.2547879219055176,-6.9251790046691895,0.3595930337905884,-0.4937457740306854
9405.0,11.859357833862305,-13.057587623596191,0.6415431499481201,-23.812299728393555,-22.699995040893555,0.16139119863510132,-6.752224445343018,0.5466404557228088,-0.5717960000038147
9406.0,11.859210968017578,-11.859213829040527,0.6430299282073975,-26.210330963134766,-26.51480484008789,-0.24631072580814362,-5.882633686065674,0.6512665152549744,-0.6099212169647217
9407.0,11.859090805053711,-10.703100204467773,0.6457003951072693,-27.963685989379883,-29.152070999145508,0.22101351618766785,-5.359055519104004,0.7713755965232849,-0.7259914875030518
9408.0,11.858992576599121,-9.587759971618652,0.649380624294281,-30.460796356201172,-32.98075866699219,-0.36177748441696167,-3.983196258544922,0.9098199605941772,-0.7243882417678833
9409.0,11.85892391204834,-8.511746406555176,0.6538638472557068,-32.43211364746094,-34.33780288696289,-0.11607624590396881,-3.126474380493164,0.9540790915489197,-0.6284099221229553
9410.0,11.858880996704102,-7.47367000579834,0.6589107513427734,-33.95429611206055,-37.21810531616211,0.38554954528808594,-1.9627333879470825,1.5011188983917236,-0.7259466648101807
9411.0,11.858880996704102,-6.472194194793701,0.6642586588859558,-37.86506271362305,-40.07033157348633,-0.6916422247886658,0.911375880241394,2.495347738265991,-0.9795823693275452
9412.0,11.858919143676758,-5.505993843078613,0.6696782112121582,-43.78410339355469,-39.321834564208984,0.7634515166282654,2.9664745330810547,3.710928440093994,-1.2831345796585083
9589.0,13.061670303344727,-48.74952697753906,0.8319741487503052,9.814681053161621,29.749897003173828,0.9810141921043396,-1.930727243423462,-0.06839079409837723,-0.6716675162315369
9590.0,13.061502456665039,-46.292686462402344,0.8270682692527771,7.15962553024292,25.66659927368164,-0.9335874915122986,-2.585784673690796,-0.06543482095003128,-0.17444682121276855
9591.0,13.061326026916504,-43.92251205444336,0.8183549642562866,5.969210624694824,22.428956985473633,0.8801270723342896,-3.211414098739624,-0.016105400398373604,-0.7154058814048767
9592.0,13.061140060424805,-41.63593673706055,0.8069657683372498,3.5879499912261963,19.2501220703125,-0.7580074071884155,-3.7721285820007324,-0.018290171399712563,-0.12603320181369781
9593.0,13.060944557189941,-39.429996490478516,0.7938011884689331,2.39350962638855,16.82825469970703,0.6643616557121277,-4.2408366203308105,0.018134750425815582,-0.6053223609924316
9594.0,13.060745239257812,-37.30185317993164,0.7795420289039612,0.3041982352733612,14.27253532409668,-0.5185706615447998,-4.757181644439697,0.07222509384155273,-0.19170981645584106
9595.0,13.060540199279785,-35.24873733520508,0.7647484540939331,-0.8284507393836975,12.1309814453125,0.49921470880508423,-5.10010290145874,0.08265269547700882,-0.5461056232452393
9596.0,13.060335159301758,-33.268009185791016,0.7498578429222107,-2.5965497493743896,9.868369102478027,-0.4104122817516327,-5.435687065124512,0.113295778632164,-0.0811808705329895
9597.0,13.06013298034668,-31.357114791870117,0.7352303862571716,-3.825377941131592,7.779767036437988,0.34593698382377625,-5.7359514236450195,0.10766108334064484,-0.3981507122516632
9598.0,13.059930801391602,-29.513580322265625,0.7211427688598633,-5.476676940917969,5.792785167694092,-0.26487720012664795,-5.986335754394531,0.09486091881990433,-0.24160431325435638
9599.0,13.059732437133789,-27.735029220581055,0.7078251242637634,-6.690787315368652,3.8125593662261963,0.31700968742370605,-6.288437366485596,0.146067276597023,-0.32927629351615906
9600.0,13.059531211853027,-26.019168853759766,0.6954579949378967,-8.19815444946289,1.7837144136428833,-0.07602307945489883,-6.59578275680542,0.10669924318790436,-0.09714549034833908
9601.0,13.059328079223633,-24.363801956176758,0.6841846108436584,-9.401656150817871,-0.40294796228408813,0.18152211606502533,-6.781467914581299,0.15403304994106293,-0.41427186131477356
9602.0,13.059128761291504,-22.76678466796875,0.6741160750389099,-10.847931861877441,-2.620286703109741,-0.139004647731781,-7.150111198425293,0.19816440343856812,-0.23443147540092468
9603.0,13.058927536010742,-21.226064682006836,0.6653376221656799,-12.115067481994629,-4.746607303619385,0.2751428782939911,-7.325194835662842,0.18890073895454407,-0.29462501406669617
9604.0,13.058723449707031,-19.739656448364258,0.657896101474762,-13.810090065002441,-7.318493843078613,-0.18008862435817719,-7.5399932861328125,0.2605724632740021,-0.37000301480293274
9605.0,13.058518409729004,-18.30565643310547,0.6518275737762451,-15.244771957397461,-9.835091590881348,0.1947406828403473,-7.6507649421691895,0.26024433970451355,-0.45723941922187805
9606.0,13.058317184448242,-16.922210693359375,0.647143542766571,-16.674699783325195,-12.533614158630371,-0.10282837599515915,-7.7451558113098145,0.32029059529304504,-0.36711055040359497
9607.0,13.05811882019043,-15.587546348571777,0.6438270211219788,-18.223037719726562,-15.537657737731934,0.07485464960336685,-7.596080303192139,0.3490850627422333,-0.3856670558452606
9608.0,13.057929039001465,-14.299942016601562,0.6418297290802002,-19.5770206451416,-18.19276237487793,0.07077936083078384,-7.5281758308410645,0.37258243560791016,-0.48259612917900085
9609.0,13.057753562927246,-13.057745933532715,0.6410786509513855,-21.35466766357422,-21.489498138427734,-0.06672415137290955,-7.083794593811035,0.5095608830451965,-0.4706650376319885
9610.0,13.05759334564209,-11.859355926513672,0.6414794325828552,-22.605379104614258,-24.074846267700195,0.24516251683235168,-6.647240161895752,0.6431057453155518,-0.5004071593284607
9611.0,13.057456016540527,-10.703224182128906,0.6428987979888916,-24.322078704833984,-27.14497184753418,-0.10077117383480072,-5.772059917449951,0.7312913537025452,-0.5751710534095764
9612.0,13.05733585357666,-9.587855339050293,0.645175039768219,-25.8170166015625,-28.970279693603516,0.3325131833553314,-5.198400974273682,0.8113532066345215,-0.5562639832496643
9613.0,13.057242393493652,-8.511811256408691,0.6481242179870605,-27.105390548706055,-31.651798248291016,0.06365719437599182,-4.085384845733643,0.9753808379173279,-0.4845103621482849
9614.0,13.05717658996582,-7.473700523376465,0.6515414714813232,-28.665790557861328,-32.902767181396484,-0.5610886216163635,-2.650390863418579,1.079594612121582,-0.28012916445732117
9615.0,13.057134628295898,-6.472167015075684,0.655203640460968,-29.607572555541992,-32.9982795715332,0.270398885011673,-2.0832700729370117,1.1083461046218872,-0.5421192646026611
9616.0,13.057100296020508,-5.505923748016357,0.6588851809501648,-30.323894500732422,-34.75545883178711,-1.4980734586715698,-1.3164716958999634,1.2994669675827026,-0.41458606719970703
9793.0,14.304099082946777,-48.749542236328125,0.8320127129554749,9.61165714263916,29.01041030883789,1.0201274156570435,-2.071394681930542,-0.10848213732242584,-0.6108501553535461
9794.0,14.30391788482666,-46.292720794677734,0.827247679233551,7.000022888183594,24.963184356689453,-0.9233450293540955,-2.783698558807373,-0.13525086641311646,-0.08211463689804077
9795.0,14.303727149963379,-43.92257308959961,0.8187828063964844,5.849949359893799,21.767147064208984,0.8011542558670044,-3.449018716812134,-0.0315958708524704,-0.6833871603012085
9796.0,14.303526878356934,-41.63601303100586,0.8077135682106018,3.6473963260650635,18.772727966308594,-0.6810383200645447,-4.060318470001221,-0.011235177516937256,-0.0700644925236702
9797.0,14.303319931030273,-39.43008804321289,0.7949120998382568,2.5142157077789307,16.363481521606445,0.5866456627845764,-4.553281307220459,-0.021659495308995247,-0.5766491293907166
9798.0,14.303101539611816,-37.30195236206055,0.781036376953125,0.5886566638946533,13.905913352966309,-0.550500214099884,-5.096038341522217,-0.01123122964054346,-0.1429918259382248
9799.0,14.302886009216309,-35.24885177612305,0.7666277289390564,-0.5419489741325378,11.791520118713379,0.397460013628006,-5.4465131759643555,0.02477370575070381,-0.5196086764335632
9800.0,14.302666664123535,-33.268131256103516,0.7521073818206787,-2.133197784423828,9.664580345153809,-0.38727691769599915,-5.791737079620361,0.12017893046140671,-0.10345123708248138
9801.0,14.302451133728027,-31.357240676879883,0.7378207445144653,-3.1549742221832275,7.597651958465576,0.3971092700958252,-6.129324913024902,0.10609602183103561,-0.4120614528656006
9802.0,14.302237510681152,-29.513715744018555,0.7240357995033264,-4.777313232421875,5.6081013679504395,-0.3671582043170929,-6.398865222930908,0.017640531063079834,-0.16236700117588043
9803.0,14.302023887634277,-27.735170364379883,0.7109704613685608,-5.9271745681762695,3.6373884677886963,0.1272299736738205,-6.725420951843262,0.06607142835855484,-0.3388207256793976
9804.0,14.301811218261719,-26.01932144165039,0.6987925171852112,-7.261874675750732,1.6761362552642822,-0.2415820211172104,-7.032851696014404,0.11492829769849777,-0.16237212717533112
9805.0,14.30159854888916,-24.36396026611328,0.6876383423805237,-8.353157997131348,-0.3732578754425049,0.15242145955562592,-7.172764301300049,0.16842806339263916,-0.4120445251464844
9806.0,14.301389694213867,-22.766950607299805,0.6776072978973389,-9.806214332580566,-2.6290855407714844,-0.28017428517341614,-7.534980297088623,0.1794867366552353,-0.24153102934360504
9807.0,14.301172256469727,-21.226234436035156,0.6687764525413513,-10.848382949829102,-4.626230716705322,0.10619813203811646,-7.6272196769714355,0.18141327798366547,-0.26801010966300964
9808.0,14.300958633422852,-19.739835739135742,0.6611815094947815,-12.185131072998047,-6.93499755859375,-0.18569622933864594,-7.8795166015625,0.24758484959602356,-0.3408189117908478
9809.0,14.300748825073242,-18.30583381652832,0.654845654964447,-13.323797225952148,-9.34874439239502,0.11601416766643524,-7.998034477233887,0.22698673605918884,-0.32718607783317566
9810.0,14.300536155700684,-16.922393798828125,0.6497736573219299,-14.696358680725098,-11.961997985839844,-0.19461405277252197,-8.032576560974121,0.27526476979255676,-0.3162769079208374
9811.0,14.300331115722656,-15.587724685668945,0.6459407806396484,-15.802221298217773,-14.602785110473633,0.05687752366065979,-8.006523132324219,0.3119247257709503,-0.35396286845207214
9812.0,14.30013370513916,-14.300124168395996,0.6432933211326599,-17.20683479309082,-17.217439651489258,-0.1510373204946518,-7.765457630157471,0.2852672338485718,-0.4116668403148651
9813.0,14.29995059967041,-13.057920455932617,0.6417557597160339,-18.298154830932617,-19.8283748626709,-0.10779939591884613,-7.496459484100342,0.3821885883808136,-0.4359923005104065
9814.0,14.299787521362305,-11.859516143798828,0.641233503818512,-19.505319595336914,-22.460926055908203,-0.23584653437137604,-6.817551612854004,0.4620618522167206,-0.41254159808158875
9815.0,14.299635887145996,-10.703363418579102,0.6416024565696716,-20.43073844909668,-24.327682495117188,0.2119544893503189,-6.303840160369873,0.517916202545166,-0.47902628779411316
9816.0,14.299506187438965,-9.58797550201416,0.6427164077758789,-21.63410758972168,-27.02208137512207,-0.42160966992378235,-5.483943462371826,0.6349890232086182,-0.3924711346626282
9817.0,14.299399375915527,-8.511906623840332,0.6444167494773865,-22.566648483276367,-28.034175872802734,0.12346376478672028,-4.522003173828125,0.7770572304725647,-0.3631346523761749
9818.0,14.299315452575684,-7.4737629890441895,0.6465306878089905,-23.697555541992188,-29.36772346496582,0.3891794979572296,-3.9250149726867676,0.9640828371047974,-0.37478142976760864
9819.0,14.299248695373535,-6.472207069396973,0.6488791108131409,-24.55146598815918,-30.51988410949707,-0.04112536832690239,-2.9475462436676025,1.020224690437317,-0.22195719182491302
9820.0,14.29920768737793,-5.5059428215026855,0.6512938141822815,-25.007905960083008,-30.235212326049805,1.2665400505065918,-2.012432813644409,0.9174484610557556,-0.24083341658115387
9997.0,15.59189510345459,-48.74955749511719,0.8320560455322266,9.344613075256348,28.09803581237793,0.9412441849708557,-2.2141408920288086,-0.11049330234527588,-0.6487197875976562
9998.0,15.591705322265625,-46.29275894165039,0.827448844909668,6.939558982849121,24.249828338623047,-0.8375181555747986,-3.006606101989746,-0.12349039316177368,-0.06511294096708298
9999.0,15.591501235961914,-43.92263412475586,0.8192625641822815,5.755255699157715,21.084070205688477,0.7541706562042236,-3.6983773708343506,-0.06036245450377464,-0.6245064735412598
10000.0,15.591285705566406,-41.63609313964844,0.8085532784461975,3.5967555046081543,18.200485229492188,-0.6646575927734375,-4.3443284034729,-0.06622454524040222,-0.05424085631966591
10001.0,15.591064453125,-39.430179595947266,0.7961602807044983,2.5704848766326904,15.86671257019043,0.619108259677887,-4.830121994018555,-0.0066732908599078655,-0.5487866997718811
10002.0,15.590836524963379,-37.30206298828125,0.7827168107032776,0.8709011077880859,13.521730422973633,-0.4768771529197693,-5.399091720581055,0.03215566650032997,-0.12511883676052094
10003.0,15.590604782104492,-35.248966217041016,0.768744707107544,-0.07210060954093933,11.55293083190918,0.5042782425880432,-5.788017749786377,0.06009769067168236,-0.47553613781929016
10004.0,15.590376853942871,-33.26826095581055,0.7546467185020447,-1.7688992023468018,9.343066215515137,-0.37806418538093567,-6.1366190910339355,0.07965017110109329,-0.1519923359155655
10005.0,15.590147972106934,-31.357378005981445,0.7407544851303101,-2.7270090579986572,7.336177825927734,0.3714028596878052,-6.4836931228637695,0.1186341643333435,-0.4356662631034851
10006.0,15.589920043945312,-29.513858795166016,0.7273241281509399,-3.9819319248199463,5.47130012512207,-0.18773053586483002,-6.776261329650879,0.15898269414901733,-0.13882805407047272
10007.0,15.589696884155273,-27.73532485961914,0.7145634889602661,-4.961955547332764,3.6364388465881348,0.3756571114063263,-7.106601238250732,0.13150866329669952,-0.4109131991863251
10008.0,15.589470863342285,-26.019487380981445,0.7026285529136658,-6.339919090270996,1.6715242862701416,-0.20857737958431244,-7.364701271057129,0.11641556769609451,-0.1977991908788681
10009.0,15.589249610900879,-24.364131927490234,0.691647469997406,-7.312404155731201,-0.31926098465919495,0.2645243704319,-7.505932807922363,0.12409555912017822,-0.3663696050643921
10010.0,15.589029312133789,-22.76712417602539,0.6817101836204529,-8.432564735412598,-2.348768472671509,-0.11040269583463669,-7.847354888916016,0.1225963905453682,-0.2548697888851166
10011.0,15.588807106018066,-21.22641944885254,0.6728835105895996,-9.43191909790039,-4.453178882598877,0.19459697604179382,-8.02152156829834,0.1651555448770523,-0.29192617535591125
10012.0,15.58858585357666,-19.740020751953125,0.6652000546455383,-10.52318286895752,-6.4820942878723145,0.03914293646812439,-8.22496509552002,0.28621116280555725,-0.375506192445755
10013.0,15.588364601135254,-18.306028366088867,0.6586733460426331,-11.594834327697754,-8.91430950164795,0.15485458076000214,-8.356532096862793,0.32171210646629333,-0.29165124893188477
10014.0,15.588149070739746,-16.92258644104004,0.6532992720603943,-12.656864166259766,-11.206381797790527,0.013756057247519493,-8.276780128479004,0.2758840322494507,-0.21640551090240479
10015.0,15.587942123413086,-15.587921142578125,0.6490477919578552,-13.56386661529541,-13.581450462341309,0.1353261023759842,-8.162269592285156,0.3075559437274933,-0.3106384575366974
10016.0,15.587739944458008,-14.300310134887695,0.6458647847175598,-14.501260757446289,-15.943070411682129,0.05414041876792908,-7.963038921356201,0.3588559031486511,-0.34398871660232544
10017.0,15.587554931640625,-13.058103561401367,0.6436775326728821,-15.371827125549316,-18.285995483398438,0.2203986495733261,-7.536120891571045,0.43986421823501587,-0.39457452297210693
10018.0,15.587385177612305,-11.859686851501465,0.6423940062522888,-16.279752731323242,-20.28514862060547,0.0895581766963005,-7.136897563934326,0.5364494919776917,-0.3392694592475891
10019.0,15.587228775024414,-10.703520774841309,0.641900360584259,-17.033655166625977,-22.391254425048828,0.08028297871351242,-6.44663143157959,0.5889365673065186,-0.3186645209789276
10020.0,15.587098121643066,-9.588111877441406,0.6420713067054749,-17.726198196411133,-24.05006217956543,0.1811181604862213,-5.767075538635254,0.601146399974823,-0.17692962288856506
10021.0,15.586983680725098,-8.512022972106934,0.6427692770957947,-18.32789421081543,-25.651580810546875,-0.045350734144449234,-5.144216060638428,0.6154870986938477,-0.275676965713501
10022.0,15.58689022064209,-7.473858833312988,0.6438496112823486,-18.848251342773438,-26.733213424682617,-0.3393216133117676,-4.197694301605225,0.6854408979415894,-0.1379835605621338
10023.0,15.58681583404541,-6.4722819328308105,0.6451709866523743,-19.142457962036133,-27.232463836669922,-0.10779815167188644,-3.3896193504333496,0.8035463690757751,-0.12274456769227982
10024.0,15.586762428283691,-5.505996227264404,0.6465937495231628,-19.686586380004883,-28.258541107177734,-1.175269603729248,-2.689746618270874,0.9498018622398376,-0.0018698053900152445
10201.0,16.926719665527344,-48.74957275390625,0.8321051597595215,9.023117065429688,27.070171356201172,0.8413277268409729,-2.3042376041412354,-0.04729665815830231,-0.6862839460372925
10202.0,16.9265193939209,-46.29281234741211,0.8276740312576294,6.81950044631958,23.435409545898438,-0.7786933183670044,-3.1561830043792725,-0.04947700351476669,-0.09195932745933533
10203.0,16.926305770874023,-43.922698974609375,0.81979900598526,5.778863906860352,20.411094665527344,0.7567275762557983,-3.8928568363189697,-0.060577865689992905,-0.5723168849945068
10204.0,16.926076889038086,-41.63618469238281,0.8094916343688965,3.808678150177002,17.63163948059082,-0.6612145900726318,-4.6075286865234375,-0.04689737781882286,-0.1066509559750557
10205.0,16.925840377807617,-39.430294036865234,0.797554612159729,2.8577749729156494,15.418463706970215,0.6410040259361267,-5.112724781036377,0.00011490064935060218,-0.553260862827301
10206.0,16.925600051879883,-37.302181243896484,0.784595251083374,1.0959492921829224,13.036333084106445,-0.5698900818824768,-5.650053024291992,-0.03046240098774433,-0.13616596162319183
10207.0,16.92535972595215,-35.24910354614258,0.7711138725280762,0.3007136285305023,11.145647048950195,0.4161922335624695,-6.092379570007324,0.0322442352771759,-0.44767430424690247
10208.0,16.92511749267578,-33.26840591430664,0.7574934363365173,-1.181904673576355,9.007401466369629,-0.4225441813468933,-6.479415416717529,0.08360844105482101,-0.1500745415687561
10209.0,16.92487907409668,-31.35753059387207,0.7440515160560608,-2.0096867084503174,7.168684959411621,0.31138184666633606,-6.800872802734375,0.07976218312978745,-0.40527036786079407
10210.0,16.924638748168945,-29.51402473449707,0.7310322523117065,-3.376473903656006,5.123779296875,-0.3970014452934265,-7.102081298828125,0.09799495339393616,-0.1974264234304428
10211.0,16.924406051635742,-27.73550033569336,0.7186330556869507,-4.188548564910889,3.452476739883423,0.158980593085289,-7.426684856414795,0.1419469267129898,-0.42989543080329895
10212.0,16.924171447753906,-26.019664764404297,0.7069997787475586,-5.2675957679748535,1.6598033905029297,-0.23233447968959808,-7.657027244567871,0.12046169489622116,-0.20953871309757233
10213.0,16.92394256591797,-24.364315032958984,0.6962509155273438,-6.2348785400390625,-0.3837285339832306,0.146096870303154,-7.885131359100342,0.0780152902007103,-0.3089766800403595
10214.0,16.92371368408203,-22.767316818237305,0.6864705085754395,-7.326714038848877,-2.329225778579712,-0.280527800321579,-8.119181632995605,0.16835308074951172,-0.26450538635253906
10215.0,16.923486709594727,-21.226613998413086,0.6777157783508301,-8.082100868225098,-4.339297771453857,-0.0033120920415967703,-8.372237205505371,0.18300579488277435,-0.28223106265068054
10216.0,16.92325782775879,-19.74022102355957,0.6700150966644287,-9.040823936462402,-6.246882915496826,-0.2098311334848404,-8.40960693359375,0.19893179833889008,-0.31103846430778503
10217.0,16.92303466796875,-18.306230545043945,0.6633769869804382,-9.694808959960938,-8.404727935791016,-0.02714640274643898,-8.518474578857422,0.27054738998413086,-0.32182976603507996
10218.0,16.922819137573242,-16.922792434692383,0.6577911972999573,-10.474201202392578,-10.4751558303833,-0.12706245481967926,-8.420838356018066,0.22026239335536957,-0.23529531061649323
10219.0,16.922607421875,-15.58812141418457,0.65322345495224,-11.262649536132812,-12.567859649658203,-0.048254337161779404,-8.327938079833984,0.2927239239215851,-0.2869703471660614
10220.0,16.922407150268555,-14.300508499145508,0.6496214270591736,-12.040717124938965,-14.864694595336914,-0.24621258676052094,-8.019669532775879,0.39061710238456726,-0.2622884213924408
10221.0,16.92222023010254,-13.058290481567383,0.6469178199768066,-12.547382354736328,-16.808279037475586,0.020798347890377045,-7.625502586364746,0.3677036464214325,-0.25099626183509827
10222.0,16.92205047607422,-11.859865188598633,0.6450271010398865,-13.203855514526367,-18.741289138793945,-0.19602622091770172,-7.145651817321777,0.3870675563812256,-0.18323016166687012
10223.0,16.921897888183594,-10.703682899475098,0.6438469886779785,-13.610532760620117,-20.217348098754883,-0.010669659823179245,-6.531387805938721,0.43104812502861023,-0.2716057300567627
10224.0,16.92176628112793,-9.58825969696045,0.6432681083679199,-14.199614524841309,-22.02672004699707,-0.34622007608413696,-5.887173175811768,0.5544814467430115,-0.09607240557670593
10225.0,16.921648025512695,-8.512152671813965,0.6431756615638733,-14.603240013122559,-23.065340042114258,-0.025795789435505867,-5.188070297241211,0.5979747772216797,-0.23009668290615082
10226.0,16.921552658081055,-7.473968505859375,0.6434471607208252,-15.043657302856445,-23.98591423034668,0.08305707573890686,-4.39064359664917,0.6025634407997131,-0.3307696580886841
10227.0,16.921476364135742,-6.4723711013793945,0.6439670920372009,-15.34879207611084,-24.703062057495117,0.13431279361248016,-3.5330052375793457,0.537398099899292,-0.09954234957695007
10228.0,16.921419143676758,-5.506065845489502,0.6446309685707092,-15.559988975524902,-24.68033218383789,0.9386968016624451,-2.795898199081421,0.4109289348125458,-0.10521657764911652
10405.0,18.310287475585938,-48.74958038330078,0.8321601152420044,8.681865692138672,26.03294563293457,0.8765378594398499,-2.389874219894409,-0.07815679162740707,-0.6288923621177673
10406.0,18.310075759887695,-46.292850494384766,0.8279248476028442,6.571900367736816,22.486488342285156,-0.7725975513458252,-3.2850327491760254,-0.1137775257229805,-0.09016656875610352
10407.0,18.30985450744629,-43.922767639160156,0.8203949332237244,5.674907207489014,19.61285400390625,0.7124500274658203,-4.058857440948486,-0.07324463129043579,-0.5128321051597595
10408.0,18.309614181518555,-41.63628005981445,0.8105325102806091,3.8264660835266113,16.91248321533203,-0.6536244750022888,-4.819337844848633,0.005131147801876068,-0.1336551308631897
10409.0,18.30936622619629,-39.4304084777832,0.7991012930870056,3.046630620956421,14.85867977142334,0.5815548300743103,-5.364058494567871,0.05566537752747536,-0.5349054932594299
10410.0,18.309114456176758,-37.302310943603516,0.7866802215576172,1.4782183170318604,12.623398780822754,-0.5157385468482971,-5.919649124145508,0.0072277444414794445,-0.1018836572766304
10411.0,18.308866500854492,-35.24924087524414,0.7737465500831604,0.7010416388511658,10.707160949707031,0.4305982291698456,-6.388485431671143,0.014804037287831306,-0.43268030881881714
10412.0,18.308609008789062,-33.268558502197266,0.7606630921363831,-0.6235828995704651,8.738301277160645,-0.28236326575279236,-6.751494407653809,0.055720627307891846,-0.16723814606666565
10413.0,18.30836296081543,-31.357696533203125,0.7477312684059143,-1.3591662645339966,6.979886054992676,0.4391195476055145,-7.068154335021973,0.11029671877622604,-0.35259225964546204
10414.0,18.30811882019043,-29.51419448852539,0.7351831793785095,-2.6084554195404053,4.9819560050964355,-0.2681698799133301,-7.3839335441589355,0.152402862906456,-0.2215850055217743
10415.0,18.307870864868164,-27.73568344116211,0.7232069373130798,-3.2975964546203613,3.38423490524292,0.26907992362976074,-7.705543041229248,0.21937856078147888,-0.2975464165210724
10416.0,18.30763053894043,-26.019853591918945,0.7119396924972534,-4.1943535804748535,1.6567422151565552,-0.03990976884961128,-7.910098552703857,0.24044813215732574,-0.18454159796237946
10417.0,18.30739402770996,-24.364513397216797,0.7014885544776917,-4.9088826179504395,-0.26658037304878235,0.2965131998062134,-8.171653747558594,0.1966194063425064,-0.305263489484787
10418.0,18.307161331176758,-22.767518997192383,0.691932201385498,-5.8747029304504395,-2.0408098697662354,-0.08453580737113953,-8.283367156982422,0.25587138533592224,-0.24303914606571198
10419.0,18.306928634643555,-21.226821899414062,0.6833210587501526,-6.446547985076904,-3.8603358268737793,0.23662546277046204,-8.46810245513916,0.21275100111961365,-0.28215017914772034
10420.0,18.30669593811035,-19.740432739257812,0.6756775379180908,-7.223410606384277,-5.796631813049316,-0.016661664471030235,-8.563164710998535,0.15971946716308594,-0.25874951481819153
10421.0,18.30647087097168,-18.30644416809082,0.6690083146095276,-7.866634845733643,-7.754444599151611,0.21472486853599548,-8.545479774475098,0.25497686862945557,-0.2714526355266571
10422.0,18.306257247924805,-16.923006057739258,0.6633023619651794,-8.483036041259766,-9.714062690734863,-0.05259132757782936,-8.532063484191895,0.29200902581214905,-0.19592951238155365
10423.0,18.306045532226562,-15.588335037231445,0.6585221886634827,-8.80566120147705,-11.447876930236816,0.23034416139125824,-8.32460880279541,0.3083479106426239,-0.23509226739406586
10424.0,18.305849075317383,-14.300714492797852,0.6546162962913513,-9.348999977111816,-13.404146194458008,-0.013003567233681679,-8.056975364685059,0.347297728061676,-0.16790567338466644
10425.0,18.305665969848633,-13.058487892150879,0.6515235304832458,-9.837807655334473,-15.36428165435791,0.033752765506505966,-7.668064594268799,0.41316789388656616,-0.17899778485298157
10426.0,18.30550193786621,-11.860052108764648,0.6491675972938538,-10.124676704406738,-16.75901985168457,0.20804306864738464,-7.172744274139404,0.4783565402030945,-0.12422395497560501
10427.0,18.305349349975586,-10.703858375549316,0.647458553314209,-10.606647491455078,-18.439599990844727,0.04550129547715187,-6.521090984344482,0.4422931373119354,-0.24712421000003815
10428.0,18.305221557617188,-9.588418006896973,0.6463015079498291,-10.853384017944336,-19.43056297302246,0.29364416003227234,-5.884617328643799,0.46958062052726746,-0.15226851403713226
10429.0,18.30510711669922,-8.512290000915527,0.6455993056297302,-11.03273868560791,-20.575233459472656,0.17973066866397858,-5.286753177642822,0.5409459471702576,-0.12151597440242767
10430.0,18.305009841918945,-7.474086284637451,0.6452499032020569,-11.280704498291016,-21.429763793945312,-0.17076098918914795,-4.414753437042236,0.5132060050964355,-0.11416830122470856
10431.0,18.304931640625,-6.472468852996826,0.6451594829559326,-11.60776424407959,-22.07935905456543,-0.04597209393978119,-3.6680874824523926,0.5525737404823303,-0.11414242535829544
10432.0,18.304868698120117,-5.506142616271973,0.6452429890632629,-12.06419563293457,-22.73655891418457,-0.7889929413795471,-3.020345449447632,0.6729840040206909,-0.0577302947640419
10609.0,19.7443790435791,-48.74960708618164,0.8322204947471619,8.350289344787598,24.887388229370117,0.8505964279174805,-2.4944937229156494,-0.11663211137056351,-0.5405370593070984
10610.0,19.744163513183594,-46.29290771484375,0.8282002806663513,6.412566184997559,21.474639892578125,-0.7853994965553284,-3.4410207271575928,-0.15473264455795288,-0.04859958589076996
10611.0,19.743928909301758,-43.922855377197266,0.8210500478744507,5.680907249450684,18.809614181518555,0.7319937944412231,-4.282785415649414,-0.08367455750703812,-0.4590628445148468
10612.0,19.743680953979492,-41.636383056640625,0.8116778135299683,3.9124066829681396,16.204954147338867,-0.6182258725166321,-5.0550994873046875,-0.0544474720954895,-0.1233740970492363
10613.0,19.743423461914062,-39.430538177490234,0.800804615020752,3.151179790496826,14.175332069396973,0.45293375849723816,-5.588857650756836,0.008157641626894474,-0.4710940718650818
10614.0,19.743162155151367,-37.302459716796875,0.7889785766601562,1.831644892692566,12.146674156188965,-0.4400167167186737,-6.146513938903809,0.0601210854947567,-0.12144773453474045
10615.0,19.742897033691406,-35.2494010925293,0.7766515016555786,1.202262043952942,10.297669410705566,0.37810447812080383,-6.610690593719482,0.0814177468419075,-0.41964858770370483
10616.0,19.742637634277344,-33.26872634887695,0.7641667723655701,-0.033409420400857925,8.368409156799316,-0.44138389825820923,-6.988430500030518,0.0814831554889679,-0.1670297086238861
10617.0,19.74237823486328,-31.357877731323242,0.7518090009689331,-0.6811269521713257,6.6185078620910645,0.23653778433799744,-7.305324077606201,0.12914776802062988,-0.2777378261089325
10618.0,19.74212646484375,-29.514385223388672,0.7397967576980591,-1.59871244430542,4.9092864990234375,-0.2712174654006958,-7.614421367645264,0.1660841703414917,-0.1644984930753708
10619.0,19.74187469482422,-27.735872268676758,0.7283062934875488,-2.1676485538482666,3.2737085819244385,0.19413115084171295,-7.941593647003174,0.1310829073190689,-0.22950126230716705
10620.0,19.74162483215332,-26.02005386352539,0.7174695730209351,-3.1421947479248047,1.5603371858596802,-0.28277862071990967,-8.098954200744629,0.14219051599502563,-0.15195201337337494
10621.0,19.74138641357422,-24.36471939086914,0.7073845267295837,-3.7421188354492188,-0.27034297585487366,0.027691544964909554,-8.278733253479004,0.1691664159297943,-0.29232165217399597
10622.0,19.741147994995117,-22.76773452758789,0.6981220245361328,-4.359085559844971,-1.878933072090149,-0.2027062326669693,-8.45113468170166,0.14178015291690826,-0.1386174112558365
10623.0,19.740915298461914,-21.22703742980957,0.689727246761322,-4.8971266746521,-3.6311872005462646,-0.014733446761965752,-8.616772651672363,0.11319003999233246,-0.22420886158943176
10624.0,19.740684509277344,-19.74065589904785,0.6822199821472168,-5.391643524169922,-5.409741401672363,-0.25055691599845886,-8.696105003356934,0.16548274457454681,-0.23753485083580017
10625.0,19.740461349487305,-18.306669235229492,0.6756047010421753,-5.716686725616455,-7.115859031677246,0.083320252597332,-8.63451862335205,0.2668125629425049,-0.20613490045070648
10626.0,19.74024772644043,-16.923227310180664,0.6698670983314514,-6.363307952880859,-8.955761909484863,-0.2755274772644043,-8.527091979980469,0.23620079457759857,-0.11742241680622101
10627.0,19.74004364013672,-15.588554382324219,0.6649731993675232,-6.533514976501465,-10.506793975830078,-0.012718097306787968,-8.273041725158691,0.164803147315979,-0.2419503778219223
10628.0,19.739852905273438,-14.30092716217041,0.66087406873703,-6.925492286682129,-12.224944114685059,-0.14407609403133392,-7.9939045906066895,0.22023607790470123,-0.1795942187309265
10629.0,19.73967170715332,-13.05869197845459,0.6575128436088562,-7.254363536834717,-13.86953067779541,-0.041804663836956024,-7.586643695831299,0.3189753592014313,-0.2255021184682846
10630.0,19.739511489868164,-11.860243797302246,0.6548213958740234,-7.420368671417236,-15.156203269958496,-0.07209717482328415,-7.037341594696045,0.37402722239494324,-0.20840419828891754
10631.0,19.73936653137207,-10.704033851623535,0.6527242064476013,-7.690770149230957,-16.475980758666992,-0.1910107284784317,-6.406651020050049,0.33228304982185364,-0.2231062799692154
10632.0,19.739240646362305,-9.588577270507812,0.6511391997337341,-7.873486042022705,-17.522659301757812,-0.20709919929504395,-5.7497406005859375,0.34147384762763977,-0.16980613768100739
10633.0,19.73912811279297,-8.512431144714355,0.6499834060668945,-8.166946411132812,-18.47336769104004,-0.1821596473455429,-5.068448543548584,0.4032897651195526,-0.17248716950416565
10634.0,19.73903465270996,-7.474208354949951,0.6491733193397522,-8.250563621520996,-18.992952346801758,0.0742020532488823,-4.425525188446045,0.3677384853363037,-0.15335272252559662
10635.0,19.738954544067383,-6.47257137298584,0.6486303806304932,-8.414046287536621,-19.648902893066406,0.14788250625133514,-3.756960391998291,0.34235239028930664,-0.08810604363679886
10636.0,19.738893508911133,-5.506226539611816,0.6482887864112854,-8.514908790588379,-19.84063148498535,0.458856999874115,-3.106912851333618,0.31997764110565186,-0.06344255805015564
10813.0,21.230836868286133,-48.749629974365234,0.8322867751121521,7.96467924118042,23.60454559326172,0.7941412925720215,-2.5606698989868164,-0.10183507949113846,-0.47460052371025085
10814.0,21.230619430541992,-46.292964935302734,0.82850182056427,6.154385089874268,20.355470657348633,-0.7783153057098389,-3.5401651859283447,-0.11718957126140594,-0.03813786432147026
10815.0,21.230375289916992,-43.92294692993164,0.8217663764953613,5.507847785949707,17.854692459106445,0.6776189804077148,-4.437838077545166,-0.05485508218407631,-0.4343467354774475
10816.0,21.230117797851562,-41.63650131225586,0.8129300475120544,4.027245998382568,15.493643760681152,-0.5861811637878418,-5.2232346534729,-0.06258264929056168,-0.1073523685336113
10817.0,21.22985076904297,-39.430667877197266,0.8026675581932068,3.4279398918151855,13.549985885620117,0.4504554569721222,-5.780609130859375,-0.03133578598499298,-0.424437552690506
10818.0,21.229581832885742,-37.302608489990234,0.791493833065033,2.1551482677459717,11.593647003173828,-0.377201110124588,-6.341462135314941,0.03352050483226776,-0.1886209100484848
10819.0,21.229310989379883,-35.249568939208984,0.7798339128494263,1.6011130809783936,9.874028205871582,0.44712764024734497,-6.819945335388184,0.08269863575696945,-0.3930559456348419
10820.0,21.22904396057129,-33.2689094543457,0.768010139465332,0.5730538368225098,8.046759605407715,-0.27698007225990295,-7.242008209228516,0.10872060805559158,-0.1318272203207016
10821.0,21.22878074645996,-31.35806655883789,0.756289541721344,0.06037425622344017,6.396180152893066,0.33696338534355164,-7.5165486335754395,0.14225436747074127,-0.25873568654060364
10822.0,21.2285213470459,-29.514585494995117,0.744878351688385,-0.8279924988746643,4.792601108551025,-0.1922168880701065,-7.807297706604004,0.15981356799602509,-0.1516287475824356
10823.0,21.22826385498047,-27.736082077026367,0.7339397072792053,-1.3400731086730957,3.1172404289245605,0.1891273409128189,-8.0742769241333,0.15447217226028442,-0.2994699776172638
10824.0,21.228012084960938,-26.020267486572266,0.7235998511314392,-1.9870240688323975,1.5644015073776245,-0.08884566277265549,-8.315962791442871,0.17865215241909027,-0.12836332619190216
10825.0,21.227766036987305,-24.36494255065918,0.7139501571655273,-2.3776445388793945,-0.004236805718392134,0.3005661070346832,-8.434783935546875,0.260487824678421,-0.2281135618686676
10826.0,21.227529525756836,-22.767961502075195,0.7050532698631287,-2.8587148189544678,-1.5888679027557373,0.0042361612431705,-8.587080955505371,0.2686455547809601,-0.1098913624882698
10827.0,21.227294921875,-21.227266311645508,0.6969497203826904,-3.1597542762756348,-3.157991647720337,0.34306764602661133,-8.645440101623535,0.22783342003822327,-0.1810566782951355
10828.0,21.227067947387695,-19.740888595581055,0.6896572709083557,-3.635826587677002,-4.73744010925293,0.08074060827493668,-8.641362190246582,0.21822799742221832,-0.216650128364563
10829.0,21.226850509643555,-18.30689811706543,0.6831789016723633,-3.9406208992004395,-6.424602031707764,0.21450123190879822,-8.584486961364746,0.22480818629264832,-0.20950745046138763
10830.0,21.22663688659668,-16.92345428466797,0.6774992942810059,-4.224870204925537,-7.914867401123047,0.10883062332868576,-8.393780708312988,0.2710592746734619,-0.13688765466213226
10831.0,21.226438522338867,-15.588775634765625,0.6725857257843018,-4.489326000213623,-9.451460838317871,0.19361235201358795,-8.089982032775879,0.2848425805568695,-0.20429958403110504
10832.0,21.22625160217285,-14.301140785217285,0.6683964133262634,-4.706105709075928,-10.898033142089844,0.08422619849443436,-7.786907196044922,0.2875399887561798,-0.15934588015079498
10833.0,21.2260799407959,-13.058897972106934,0.6648802161216736,-4.763123035430908,-12.270090103149414,0.24916376173496246,-7.356567859649658,0.32603755593299866,-0.19319726526737213
10834.0,21.225923538208008,-11.860434532165527,0.6619751453399658,-5.051718235015869,-13.554815292358398,-0.03604081645607948,-6.825859546661377,0.37760207056999207,-0.18962611258029938
10835.0,21.225784301757812,-10.704212188720703,0.6596167683601379,-5.142013072967529,-14.515303611755371,0.10539794713258743,-6.287716388702393,0.417704313993454,-0.21064962446689606
10836.0,21.225662231445312,-9.588737487792969,0.6577363014221191,-5.287001132965088,-15.418684005737305,0.2801247537136078,-5.702552318572998,0.3963925540447235,-0.11903364211320877
10837.0,21.225557327270508,-8.512574195861816,0.6562614440917969,-5.428805828094482,-16.27800178527832,0.1495816707611084,-5.0933518409729,0.4051998257637024,-0.08193325251340866
10838.0,21.2254638671875,-7.474334716796875,0.6551230549812317,-5.533108234405518,-16.94354248046875,0.045924507081508636,-4.426306247711182,0.40641719102859497,-0.06886553019285202
10839.0,21.22538948059082,-6.4726786613464355,0.6542592644691467,-5.639139175415039,-17.4080753326416,-0.013957098126411438,-3.78904128074646,0.39491650462150574,-0.038850486278533936
10840.0,21.225324630737305,-5.506316661834717,0.6536141037940979,-5.85786771774292,-17.978731155395508,-0.4127522110939026,-3.175196647644043,0.4633275866508484,0.04040199890732765
11017.0,22.77157974243164,-48.74964904785156,0.8323591947555542,7.557865619659424,22.220613479614258,0.7550559043884277,-2.606292963027954,-0.08604969084262848,-0.4108671545982361
11018.0,22.771358489990234,-46.29302978515625,0.8288316130638123,6.0066986083984375,19.253374099731445,-0.6721920967102051,-3.6316885948181152,-0.11133164912462234,-0.04276135936379433
11019.0,22.771106719970703,-43.923038482666016,0.8225463628768921,5.458862781524658,16.8986759185791,0.644468367099762,-4.553543567657471,-0.05904105678200722,-0.41063615679740906
11020.0,22.770845413208008,-41.63662338256836,0.8142914175987244,4.107346057891846,14.678276062011719,-0.6193186640739441,-5.332858562469482,-0.015610650181770325,-0.0561695396900177
11021.0,22.770572662353516,-39.430816650390625,0.8046914339065552,3.6153714656829834,12.832938194274902,0.4028797149658203,-5.963211536407471,0.013303891755640507,-0.3794655203819275
11022.0,22.770296096801758,-37.30277633666992,0.7942257523536682,2.4516489505767822,10.924422264099121,-0.4660380184650421,-6.528934955596924,0.03198099508881569,-0.15242159366607666
11023.0,22.770021438598633,-35.249755859375,0.7832914590835571,2.0377140045166016,9.318156242370605,0.2868101894855499,-6.983466625213623,0.011960873380303383,-0.36173123121261597
11024.0,22.769746780395508,-33.26910400390625,0.7721906900405884,1.1973100900650024,7.650505542755127,-0.32201120257377625,-7.4198384284973145,-0.004973025526851416,-0.13745379447937012
11025.0,22.769481658935547,-31.3582763671875,0.7611719369888306,0.7494516968727112,6.107649803161621,0.16157959401607513,-7.673064231872559,0.09067587554454803,-0.31168806552886963
11026.0,22.76921272277832,-29.514799118041992,0.7504274845123291,0.039752718061208725,4.602295398712158,-0.2904510796070099,-7.988280773162842,0.14101248979568481,-0.15993835031986237
11027.0,22.768953323364258,-27.73630142211914,0.7401090264320374,-0.24549700319766998,3.0986814498901367,0.14476533234119415,-8.185553550720215,0.1492205709218979,-0.306966096162796
11028.0,22.76870346069336,-26.020503997802734,0.7303321361541748,-0.792872428894043,1.4369887113571167,-0.2657724916934967,-8.410809516906738,0.13682274520397186,-0.16623450815677643
11029.0,22.768455505371094,-24.365175247192383,0.7211862206459045,-1.0282388925552368,0.09149736911058426,0.06050723046064377,-8.42817211151123,0.1242261454463005,-0.21327592432498932
11030.0,22.768218994140625,-22.768192291259766,0.7127270698547363,-1.523277759552002,-1.4092695713043213,-0.38366109132766724,-8.553409576416016,0.14160765707492828,-0.16109131276607513
11031.0,22.767988204956055,-21.227506637573242,0.7049881219863892,-1.6262246370315552,-2.8562681674957275,-0.045133061707019806,-8.561171531677246,0.1696511209011078,-0.20430734753608704
11032.0,22.76776123046875,-19.741125106811523,0.6979871988296509,-1.9343645572662354,-4.348180770874023,-0.24910904467105865,-8.541674613952637,0.20815154910087585,-0.1935822069644928
11033.0,22.767545700073242,-18.3071346282959,0.6917280554771423,-2.1009252071380615,-5.768906116485596,-0.12165145576000214,-8.452731132507324,0.1965412199497223,-0.1723151057958603
11034.0,22.767337799072266,-16.923688888549805,0.6861945390701294,-2.2246954441070557,-7.151652812957764,-0.20050786435604095,-8.244416236877441,0.20698581635951996,-0.14050345122814178
11035.0,22.767147064208984,-15.588998794555664,0.6813546419143677,-2.264392137527466,-8.390617370605469,-0.059107933193445206,-7.970516681671143,0.22427047789096832,-0.1890195608139038
11036.0,22.7669677734375,-14.301359176635742,0.6771717667579651,-2.544024705886841,-9.776814460754395,-0.30363693833351135,-7.591002941131592,0.2552023231983185,-0.0772441029548645
11037.0,22.766801834106445,-13.059103012084961,0.6736024618148804,-2.6159679889678955,-10.991249084472656,-0.17628012597560883,-7.176417827606201,0.3286348581314087,-0.08098029345273972
11038.0,22.76664924621582,-11.860626220703125,0.6705917716026306,-2.6610639095306396,-11.972701072692871,-0.20047757029533386,-6.6517133712768555,0.2887970209121704,-0.0810009241104126
11039.0,22.766521453857422,-10.704389572143555,0.6680843830108643,-2.622004270553589,-12.790857315063477,-0.04273799806833267,-6.073237419128418,0.2707667648792267,-0.18415163457393646
11040.0,22.766403198242188,-9.588897705078125,0.6660212874412537,-2.7178092002868652,-13.71756649017334,-0.30300238728523254,-5.492807388305664,0.3484857380390167,-0.11594843864440918
11041.0,22.766298294067383,-8.51271915435791,0.6643419861793518,-2.7127187252044678,-14.300047874450684,-0.06521738320589066,-4.877566814422607,0.3495352566242218,-0.05485472083091736
11042.0,22.76620864868164,-7.474461078643799,0.6629891991615295,-2.8812999725341797,-14.912439346313477,-0.05718359351158142,-4.293094635009766,0.2841801941394806,-0.0818876251578331
11043.0,22.766141891479492,-6.4727888107299805,0.6619117856025696,-2.9636902809143066,-15.317502975463867,-0.1417972445487976,-3.6554980278015137,0.2252921760082245,-0.039118941873311996
11044.0,22.766080856323242,-5.506408214569092,0.6610650420188904,-2.818298101425171,-15.427724838256836,0.3756106495857239,-3.1435720920562744,0.22908245027065277,0.0178719162940979
11221.0,24.368589401245117,-48.749671936035156,0.8324366211891174,7.09206485748291,20.714853286743164,0.6993698477745056,-2.6159212589263916,-0.06504625827074051,-0.36006808280944824
11222.0,24.368362426757812,-46.29309844970703,0.8291864991188049,5.7665910720825195,18.017982482910156,-0.6423502564430237,-3.6976656913757324,-0.09015662968158722,-0.032648224383592606
11223.0,24.368114471435547,-43.92314910888672,0.8233861923217773,5.353297710418701,15.863295555114746,0.604802668094635,-4.691516399383545,-0.09961552172899246,-0.4227153956890106
11224.0,24.367843627929688,-41.63675308227539,0.8157572150230408,4.229023456573486,13.861489295959473,-0.4833848476409912,-5.456178665161133,-0.0686582699418068,-0.038831356912851334
11225.0,24.36756706237793,-39.430973052978516,0.8068719506263733,3.9379823207855225,12.183493614196777,0.5406337380409241,-6.126065254211426,-0.010319088585674763,-0.353080689907074
11226.0,24.367280960083008,-37.30295181274414,0.7971701622009277,2.9314138889312744,10.398521423339844,-0.2856687307357788,-6.671675682067871,0.02705610916018486,-0.0687841847538948
11227.0,24.36700439453125,-35.24995040893555,0.7870200872421265,2.5071938037872314,8.824958801269531,0.3313565254211426,-7.074051380157471,0.09719865024089813,-0.30349186062812805
11228.0,24.366727828979492,-33.26931381225586,0.7767031192779541,1.8236807584762573,7.296141624450684,-0.15514664351940155,-7.513768196105957,0.11654622852802277,-0.11672843247652054
11229.0,24.366453170776367,-31.358491897583008,0.7664498686790466,1.548274040222168,5.938079833984375,0.31120383739471436,-7.790302753448486,0.15918530523777008,-0.33223816752433777
11230.0,24.366188049316406,-29.51502799987793,0.7564367651939392,1.0098029375076294,4.543147563934326,-0.09374343603849411,-8.07648754119873,0.2069350779056549,-0.11408668756484985
11231.0,24.365928649902344,-27.73653793334961,0.7468043565750122,0.816224992275238,3.2116169929504395,0.37218689918518066,-8.20021915435791,0.2072477638721466,-0.2174750417470932
11232.0,24.36567497253418,-26.02073860168457,0.7376571297645569,0.3248528242111206,1.5945340394973755,-0.10112978518009186,-8.354134559631348,0.2180478423833847,-0.21193291246891022
11233.0,24.36543083190918,-24.365419387817383,0.7290812730789185,0.26955196261405945,0.2939218282699585,0.3149835169315338,-8.37281322479248,0.25612810254096985,-0.23406556248664856
11234.0,24.365190505981445,-22.76844024658203,0.7211295366287231,0.033913563936948776,-0.9040750861167908,0.02065928280353546,-8.469559669494629,0.2733270227909088,-0.16796976327896118
11235.0,24.364967346191406,-21.227750778198242,0.7138283252716064,-0.008156693540513515,-2.2443227767944336,0.2242523431777954,-8.456925392150879,0.30493173003196716,-0.18001702427864075
11236.0,24.36474609375,-19.741365432739258,0.7071942687034607,-0.17915521562099457,-3.621797800064087,0.12480192631483078,-8.4351806640625,0.35368841886520386,-0.15576373040676117
11237.0,24.364534378051758,-18.307371139526367,0.7012314200401306,-0.16566114127635956,-4.811035633087158,0.3238704204559326,-8.237805366516113,0.32306525111198425,-0.17312109470367432
11238.0,24.364336013793945,-16.923919677734375,0.695923924446106,-0.32005274295806885,-6.1081929206848145,0.11346542090177536,-7.995574474334717,0.28176167607307434,-0.1425740271806717
11239.0,24.364152908325195,-15.589224815368652,0.6912434101104736,-0.2893369495868683,-7.168331623077393,0.2953392267227173,-7.687991619110107,0.2690255343914032,-0.2104109227657318
11240.0,24.36397933959961,-14.301572799682617,0.6871575713157654,-0.3391720950603485,-8.277717590332031,0.20138679444789886,-7.2948527336120605,0.2909225523471832,-0.08205166459083557
11241.0,24.36381721496582,-13.059304237365723,0.6836265325546265,-0.33596280217170715,-9.39102554321289,0.31522178649902344,-6.848076820373535,0.38263416290283203,-0.13262514770030975
11242.0,24.363677978515625,-11.86081600189209,0.6806039214134216,-0.34737634658813477,-10.18920612335205,0.21247698366641998,-6.381171703338623,0.37928134202957153,-0.06873387843370438
11243.0,24.363548278808594,-10.70456314086914,0.678044855594635,-0.444521963596344,-11.115442276000977,0.1539851576089859,-5.851974964141846,0.30862680077552795,-0.04080367088317871
11244.0,24.36343765258789,-9.589057922363281,0.6758981347084045,-0.43413275480270386,-11.708802223205566,0.22713616490364075,-5.284816265106201,0.3469092845916748,-0.03856370970606804
11245.0,24.36334228515625,-8.512860298156738,0.6741122007369995,-0.3525336980819702,-12.334646224975586,0.2121863216161728,-4.7488484382629395,0.42774826288223267,-0.08890147507190704
11246.0,24.363258361816406,-7.474586486816406,0.6726405620574951,-0.27613744139671326,-12.804086685180664,0.13853563368320465,-4.176762104034424,0.48600175976753235,-0.05557900667190552
11247.0,24.363187789916992,-6.472897052764893,0.6714395880699158,-0.3605552911758423,-13.19593620300293,0.11229006946086884,-3.6044888496398926,0.5006832480430603,-0.10587478429079056
11248.0,24.363128662109375,-5.506500720977783,0.670470654964447,-0.6374714374542236,-13.754624366760254,-0.25944602489471436,-3.082030773162842,0.500711977481842,-0.0997009351849556
11425.0,26.023910522460938,-48.749698638916016,0.832518994808197,6.574753761291504,19.141332626342773,0.695030152797699,-2.6024649143218994,-0.11160986870527267,-0.37557145953178406
11426.0,26.023685455322266,-46.293174743652344,0.829565167427063,5.415787220001221,16.689559936523438,-0.615581214427948,-3.6751062870025635,-0.12175826728343964,-0.05966561660170555
11427.0,26.023435592651367,-43.92325210571289,0.8242825865745544,5.1875433921813965,14.730940818786621,0.50401371717453,-4.690292835235596,-0.0704786479473114,-0.41498762369155884
11428.0,26.023164749145508,-41.636898040771484,0.817320704460144,4.301798343658447,12.925795555114746,-0.4527074992656708,-5.437465190887451,-0.06362280994653702,0.003722760360687971
11429.0,26.022886276245117,-39.431148529052734,0.8091984987258911,4.034024715423584,11.300772666931152,0.31613942980766296,-6.166103839874268,-0.02311163954436779,-0.3543660640716553
11430.0,26.022600173950195,-37.30314254760742,0.8003153204917908,3.2719454765319824,9.708553314208984,-0.40694111585617065,-6.729468822479248,-0.017110317945480347,-0.09427572041749954
11431.0,26.022321701049805,-35.250152587890625,0.7910066246986389,3.036897897720337,8.295848846435547,0.1754171997308731,-7.125624656677246,0.03479800000786781,-0.282211571931839
11432.0,26.022037506103516,-33.26953125,0.7815312147140503,2.517493963241577,6.882216930389404,-0.28567954897880554,-7.505806922912598,0.037321750074625015,-0.06486397981643677
11433.0,26.02176284790039,-31.358722686767578,0.7721036672592163,2.402412176132202,5.703868389129639,0.14883242547512054,-7.744135856628418,0.020083444193005562,-0.28767111897468567
11434.0,26.021501541137695,-29.515260696411133,0.7628832459449768,1.966342806816101,4.350585460662842,-0.37727129459381104,-7.9741058349609375,0.10546623915433884,-0.053186800330877304
11435.0,26.021242141723633,-27.73678207397461,0.753999650478363,1.9006098508834839,3.0900590419769287,0.06017822399735451,-8.163969993591309,0.14938978850841522,-0.15179355442523956
11436.0,26.020994186401367,-26.02098274230957,0.7455488443374634,1.6049816608428955,1.7458477020263672,-0.32420361042022705,-8.270094871520996,0.14840973913669586,-0.1401909589767456
11437.0,26.020750045776367,-24.365663528442383,0.7376074194908142,1.597366213798523,0.4245941936969757,0.0026640472933650017,-8.29582691192627,0.1807643324136734,-0.20907284319400787
11438.0,26.020519256591797,-22.76869010925293,0.7302255034446716,1.4893028736114502,-0.6297023892402649,-0.22714868187904358,-8.253783226013184,0.15943871438503265,-0.1816478967666626
11439.0,26.020296096801758,-21.227998733520508,0.7234296202659607,1.5546834468841553,-1.7663410902023315,-0.0490318201482296,-8.210433959960938,0.13697576522827148,-0.20923541486263275
11440.0,26.02008056640625,-19.741609573364258,0.7172328233718872,1.4459010362625122,-3.06113338470459,-0.26206040382385254,-8.14538288116455,0.1797858327627182,-0.15669387578964233
11441.0,26.019880294799805,-18.30760955810547,0.7116371393203735,1.505715250968933,-4.170181751251221,-0.1499716192483902,-7.9247660636901855,0.2229679673910141,-0.19331537187099457
11442.0,26.019685745239258,-16.924150466918945,0.7066291570663452,1.4803906679153442,-5.327001571655273,-0.3192312717437744,-7.676527976989746,0.23642168939113617,-0.13679516315460205
11443.0,26.01950454711914,-15.589447975158691,0.7021849155426025,1.6792556047439575,-6.199769020080566,-0.15518634021282196,-7.407699108123779,0.2528662383556366,-0.2128514051437378
11444.0,26.019344329833984,-14.301787376403809,0.6982761025428772,1.6436831951141357,-7.25679349899292,-0.35400259494781494,-7.036640167236328,0.25439533591270447,-0.10981054604053497
11445.0,26.019193649291992,-13.059503555297852,0.6948676705360413,1.7561571598052979,-8.103415489196777,-0.20905663073062897,-6.619041919708252,0.28104695677757263,-0.19361358880996704
11446.0,26.01905632019043,-11.861001968383789,0.6919196844100952,1.7849271297454834,-8.873974800109863,-0.3068540394306183,-6.148653984069824,0.3052029609680176,-0.15606307983398438
11447.0,26.01893424987793,-10.70473575592041,0.6893945336341858,1.852590799331665,-9.534819602966309,-0.2671135663986206,-5.625470161437988,0.29074057936668396,-0.05508005619049072
11448.0,26.018827438354492,-9.589213371276855,0.6872487664222717,1.8881771564483643,-10.11501407623291,-0.2267388254404068,-5.066962718963623,0.26182934641838074,-0.08027192950248718
11449.0,26.018735885620117,-8.51300048828125,0.6854385733604431,1.8538672924041748,-10.58549976348877,-0.16626836359500885,-4.4903645515441895,0.25056102871894836,-0.1279846876859665
11450.0,26.018657684326172,-7.474709510803223,0.683925986289978,1.7468156814575195,-11.123527526855469,-0.21857476234436035,-3.9890856742858887,0.3155861794948578,-0.0657992959022522
11451.0,26.018587112426758,-6.473003387451172,0.6826749444007874,1.8576830625534058,-11.346587181091309,-0.005573030561208725,-3.4973692893981934,0.305242657661438,-0.09047149866819382
11452.0,26.01852798461914,-5.506591320037842,0.6816525459289551,1.8722888231277466,-11.653983116149902,0.06693708151578903,-2.9593048095703125,0.27799901366233826,-0.11283744871616364
11629.0,27.739683151245117,-48.74972915649414,0.8326064348220825,6.063683032989502,17.476579666137695,0.6674070954322815,-2.5942652225494385,-0.13117645680904388,-0.36353686451911926
11630.0,27.739458084106445,-46.29324722290039,0.8299674987792969,5.179440021514893,15.414374351501465,-0.46848922967910767,-3.6772286891937256,-0.15516400337219238,-0.03351578488945961
11631.0,27.73921012878418,-43.923370361328125,0.8252333402633667,5.056224346160889,13.631319046020508,0.49376437067985535,-4.7120280265808105,-0.05151880532503128,-0.33674561977386475
11632.0,27.73893928527832,-41.63705062866211,0.8189753890037537,4.347208023071289,11.932140350341797,-0.3875376582145691,-5.4257965087890625,-0.006263998337090015,0.044613905251026154
11633.0,27.738662719726562,-39.43130874633789,0.8116592764854431,4.286384582519531,10.526789665222168,0.3909285366535187,-6.175321578979492,0.01595635525882244,-0.3491000533103943
11634.0,27.73837661743164,-37.303340911865234,0.803642213344574,3.784485340118408,9.16891860961914,-0.1461336761713028,-6.719326496124268,0.03269440308213234,-0.07304593175649643
11635.0,27.73809814453125,-35.2503662109375,0.7952256798744202,3.6479225158691406,7.919196128845215,0.3705722987651825,-7.113735675811768,0.0801049992442131,-0.263227254152298
11636.0,27.737821578979492,-33.26975631713867,0.7866441011428833,3.218975305557251,6.595290184020996,-0.18435260653495789,-7.430843830108643,0.0743875801563263,-0.06892174482345581
11637.0,27.737550735473633,-31.35896110534668,0.7780970931053162,3.3058133125305176,5.5663042068481445,0.30252835154533386,-7.720065116882324,0.10056806355714798,-0.24204622209072113
11638.0,27.737287521362305,-29.515504837036133,0.7697282433509827,3.0452489852905273,4.41269063949585,-0.052209049463272095,-7.930853843688965,0.16686810553073883,-0.025314196944236755
11639.0,27.737028121948242,-27.737031936645508,0.7616515755653381,3.0764503479003906,3.2493858337402344,0.36010146141052246,-8.059085845947266,0.21039007604122162,-0.14900124073028564
11640.0,27.73678207397461,-26.021238327026367,0.7539568543434143,2.796689748764038,1.9690617322921753,-0.07437404245138168,-8.084006309509277,0.252517968416214,-0.06955917924642563
11641.0,27.736543655395508,-24.365922927856445,0.7467116713523865,2.857473611831665,0.8496264815330505,0.25324103236198425,-8.134941101074219,0.2576911449432373,-0.20410576462745667
11642.0,27.736316680908203,-22.768943786621094,0.7399600744247437,2.838550329208374,-0.16062887012958527,0.05819248780608177,-8.061079978942871,0.2630608379840851,-0.1534150391817093
11643.0,27.736101150512695,-21.22825050354004,0.7337303161621094,3.007077932357788,-1.1116455793380737,0.2692548930644989,-8.014946937561035,0.29874101281166077,-0.1967921108007431
11644.0,27.735898971557617,-19.741853713989258,0.7280346155166626,3.119954824447632,-2.143970251083374,0.1783985048532486,-7.9267497062683105,0.2924931049346924,-0.11886662989854813
11645.0,27.735700607299805,-18.30784797668457,0.7228731513023376,3.3334126472473145,-3.0715348720550537,0.3029591143131256,-7.693833351135254,0.30349549651145935,-0.13389867544174194
11646.0,27.735517501831055,-16.924379348754883,0.7182326316833496,3.3955979347229004,-4.084434986114502,0.1894916594028473,-7.354007720947266,0.3374343514442444,-0.08727598935365677
11647.0,27.735347747802734,-15.589669227600098,0.7140941023826599,3.5674073696136475,-4.954160213470459,0.3716713786125183,-7.046966552734375,0.3659123182296753,-0.12852920591831207
11648.0,27.735185623168945,-14.301996231079102,0.7104322910308838,3.5525403022766113,-5.887622356414795,0.19958411157131195,-6.680484771728516,0.379464328289032,-0.08331704139709473
11649.0,27.735044479370117,-13.059701919555664,0.7072177529335022,3.6923556327819824,-6.590811729431152,0.3192938566207886,-6.267335891723633,0.35434266924858093,-0.13285349309444427
11650.0,27.734920501708984,-11.861188888549805,0.7044180631637573,3.817953586578369,-7.195862770080566,0.3169825077056885,-5.848133563995361,0.3648640811443329,-0.12956248223781586
11651.0,27.73480224609375,-10.704906463623047,0.7019997835159302,3.9318652153015137,-7.738629341125488,0.28630125522613525,-5.373368263244629,0.3796897232532501,-0.0908731147646904
11652.0,27.734697341918945,-9.589369773864746,0.6999266147613525,4.041554927825928,-8.219905853271484,0.2505245506763458,-4.854855060577393,0.35633575916290283,-0.09660141170024872
11653.0,27.734615325927734,-8.513138771057129,0.6981615424156189,4.1942315101623535,-8.597865104675293,0.2687322795391083,-4.347960948944092,0.41646620631217957,-0.03945368900895119
11654.0,27.734539031982422,-7.4748311042785645,0.6966726779937744,4.1475958824157715,-9.120781898498535,0.07228652387857437,-3.8690030574798584,0.4569821059703827,-0.020910711959004402
11655.0,27.734468460083008,-6.47310733795166,0.6954311728477478,4.237873554229736,-9.338497161865234,0.13586968183517456,-3.360877752304077,0.3728938400745392,-0.08083412796258926
11656.0,27.734416961669922,-5.506679058074951,0.6944084167480469,4.157712459564209,-9.765776634216309,-0.09804470092058182,-2.8238043785095215,0.36465737223625183,-0.025082603096961975
11833.0,29.518108367919922,-48.749755859375,0.8326982855796814,5.4628801345825195,15.680212020874023,0.526099443435669,-2.529439687728882,-0.10325724631547928,-0.30562636256217957
11834.0,29.517887115478516,-46.29332733154297,0.8303893804550171,4.811371326446533,13.975075721740723,-0.4966415762901306,-3.593151330947876,-0.09668094664812088,0.036223623901605606
11835.0,29.517650604248047,-43.92348861694336,0.826229989528656,4.89479398727417,12.500458717346191,0.43419697880744934,-4.642033100128174,-0.02614358440041542,-0.2840409278869629
11836.0,29.517383575439453,-41.6371955871582,0.8207077383995056,4.373394012451172,10.933855056762695,-0.4042455852031708,-5.309625625610352,-0.04331261292099953,0.016472553834319115
11837.0,29.517108917236328,-39.43149185180664,0.8142324686050415,4.509857177734375,9.697844505310059,0.30064377188682556,-6.021318435668945,-0.05068269371986389,-0.3223521411418915
11838.0,29.516830444335938,-37.30353927612305,0.8071211576461792,4.177082538604736,8.398819923400879,-0.3453148603439331,-6.570006847381592,-0.038630034774541855,0.01787794940173626
11839.0,29.516551971435547,-35.25058364868164,0.7996410131454468,4.20619535446167,7.336029529571533,0.11738276481628418,-7.0231547355651855,0.03249078616499901,-0.1843593716621399
11840.0,29.516279220581055,-33.26999282836914,0.7919999361038208,3.9669089317321777,6.278309345245361,-0.28303655982017517,-7.284636974334717,0.05813430994749069,-0.08714114129543304
11841.0,29.516008377075195,-31.35920524597168,0.7843786478042603,4.107549667358398,5.251423358917236,0.03348469361662865,-7.52140474319458,0.06224611774086952,-0.22581395506858826
11842.0,29.515748977661133,-29.515762329101562,0.7769094109535217,3.9929299354553223,4.1809611320495605,-0.3319381773471832,-7.759109973907471,0.05106204375624657,-0.03764912858605385
11843.0,29.515501022338867,-27.73729133605957,0.7696926593780518,4.162799835205078,3.202726125717163,0.000539044791366905,-7.904564380645752,0.0657915249466896,-0.16166841983795166
11844.0,29.515260696411133,-26.021499633789062,0.7628074288368225,4.098495960235596,2.0816538333892822,-0.37527668476104736,-7.967514514923096,0.11719144135713577,-0.09817560017108917
11845.0,29.51502799987793,-24.366182327270508,0.7563139200210571,4.376495361328125,1.2349506616592407,-0.0527229979634285,-7.910144805908203,0.11219407618045807,-0.22065889835357666
11846.0,29.51480484008789,-22.769207000732422,0.7502503991127014,4.4529500007629395,0.278570294380188,-0.3005070686340332,-7.805167198181152,0.12289653718471527,-0.0656503215432167
11847.0,29.51460075378418,-21.22850227355957,0.7446427941322327,4.583994388580322,-0.7299604415893555,-0.2197660207748413,-7.7053070068359375,0.17338842153549194,-0.0880398228764534
11848.0,29.514402389526367,-19.742109298706055,0.7395034432411194,4.727603912353516,-1.5555154085159302,-0.29626044631004333,-7.618210792541504,0.16366757452487946,-0.060235850512981415
11849.0,29.514217376708984,-18.30809211730957,0.7348328232765198,4.88508939743042,-2.4265553951263428,-0.24960123002529144,-7.443610191345215,0.1349017471075058,-0.12490622699260712
11850.0,29.514039993286133,-16.92461395263672,0.7306188941001892,5.025074481964111,-3.2098329067230225,-0.3837001919746399,-7.152930736541748,0.12995348870754242,-0.06673937290906906
11851.0,29.51388168334961,-15.589890480041504,0.7268467545509338,5.27207612991333,-4.0059356689453125,-0.23769092559814453,-6.851004600524902,0.1299300342798233,-0.026323143392801285
11852.0,29.513731002807617,-14.302206993103027,0.7234939336776733,5.452472686767578,-4.751384258270264,-0.2936563193798065,-6.452305793762207,0.17887188494205475,-0.10454629361629486
11853.0,29.513593673706055,-13.059898376464844,0.7205348610877991,5.638274192810059,-5.3736186027526855,-0.28777751326560974,-5.999344825744629,0.21263524889945984,-0.1226392537355423
11854.0,29.51346206665039,-11.861370086669922,0.7179446816444397,5.727898120880127,-6.043476104736328,-0.39231061935424805,-5.549315929412842,0.21408334374427795,-0.027050543576478958
11855.0,29.513362884521484,-10.705074310302734,0.7156941890716553,5.950840473175049,-6.3784708976745605,-0.2917533814907074,-5.09289026260376,0.20398138463497162,-0.07095711678266525
11856.0,29.513261795043945,-9.589520454406738,0.7137526273727417,6.018002510070801,-6.744323253631592,-0.35411226749420166,-4.619347095489502,0.16272570192813873,-0.05005574971437454
11857.0,29.513181686401367,-8.513275146484375,0.7120906114578247,6.040076732635498,-7.206256866455078,-0.25379547476768494,-4.11885404586792,0.20897305011749268,0.004440931603312492
11858.0,29.51310920715332,-7.474952697753906,0.7106799483299255,6.198012828826904,-7.407817840576172,-0.1845579296350479,-3.671003818511963,0.2836119830608368,-0.03421902656555176
11859.0,29.51304817199707,-6.473212718963623,0.7094964385032654,6.335491180419922,-7.632556438446045,-0.13918638229370117,-3.2302422523498535,0.2786127030849457,-0.006479189731180668
11860.0,29.512996673583984,-5.506767272949219,0.7085170745849609,6.38978385925293,-7.8263325691223145,-0.12344646453857422,-2.752056360244751,0.25207021832466125,0.002463236218318343
12037.0,31.361478805541992,-48.74978256225586,0.8327932357788086,4.844067096710205,13.866990089416504,0.46709153056144714,-2.469653844833374,-0.11723088473081589,-0.2721284329891205
12038.0,31.36126708984375,-46.29340362548828,0.8308247327804565,4.340281009674072,12.467957496643066,-0.47647684812545776,-3.513212203979492,-0.0893743708729744,0.044220175594091415
12039.0,31.36103630065918,-43.92361068725586,0.8272589445114136,4.653240203857422,11.331640243530273,0.38005614280700684,-4.521847248077393,0.02486267313361168,-0.24932622909545898
12040.0,31.360780715942383,-41.63734817504883,0.8224959373474121,4.455359935760498,10.020758628845215,-0.34465354681015015,-5.1776957511901855,-0.008757560513913631,0.03655531629920006
12041.0,31.360517501831055,-39.43167495727539,0.8168884515762329,4.760585784912109,8.923249244689941,0.3337104618549347,-5.873745441436768,0.03371891379356384,-0.23902222514152527
12042.0,31.360244750976562,-37.303741455078125,0.8107132911682129,4.630008697509766,7.769339561462402,-0.19888836145401,-6.408867359161377,0.0836443305015564,-0.007686265278607607
12043.0,31.359970092773438,-35.25080871582031,0.8042039275169373,4.879085540771484,6.9125142097473145,0.2523915767669678,-6.843314170837402,0.0594884529709816,-0.19388781487941742
12044.0,31.359697341918945,-33.270233154296875,0.7975420951843262,4.795375347137451,6.024437427520752,-0.03738052025437355,-7.114456653594971,0.09226834028959274,-0.06035163253545761
12045.0,31.359437942504883,-31.359453201293945,0.7908856868743896,5.030677318572998,5.221965312957764,0.3565573990345001,-7.329455852508545,0.16629864275455475,-0.16392506659030914
12046.0,31.359188079833984,-29.516019821166992,0.7843533158302307,5.129573345184326,4.266021251678467,0.08997532725334167,-7.552023887634277,0.18469633162021637,-0.048872027546167374
12047.0,31.358945846557617,-27.737550735473633,0.7780374884605408,5.403724193572998,3.358888626098633,0.3253645896911621,-7.612167835235596,0.2353104203939438,-0.1140761449933052
12048.0,31.358707427978516,-26.021770477294922,0.7720063924789429,5.519638538360596,2.5045430660247803,0.09908756613731384,-7.7053608894348145,0.27720603346824646,-0.082179956138134
12049.0,31.358488082885742,-24.366451263427734,0.7663096189498901,5.840997695922852,1.8294332027435303,0.3969127833843231,-7.677193641662598,0.30076706409454346,-0.2011873573064804
12050.0,31.358274459838867,-22.769468307495117,0.7609807252883911,6.002033710479736,1.066670298576355,0.27421924471855164,-7.616050720214844,0.3318938910961151,-0.06318270415067673
12051.0,31.35807991027832,-21.2287654876709,0.7560438513755798,6.204964637756348,0.1364729255437851,0.3513720631599426,-7.4768266677856445,0.3065268099308014,-0.0957348495721817
12052.0,31.35788345336914,-19.74235725402832,0.7515103816986084,6.443890571594238,-0.5550909638404846,0.2482243925333023,-7.321753978729248,0.33046630024909973,-0.04945734888315201
12053.0,31.357711791992188,-18.30833625793457,0.7473796606063843,6.719115257263184,-1.3155765533447266,0.3548835515975952,-7.10518217086792,0.418495237827301,-0.15078085660934448
12054.0,31.3575439453125,-16.924850463867188,0.7436428666114807,6.949387550354004,-1.9302732944488525,0.31057682633399963,-6.795368671417236,0.41217851638793945,-0.10901171714067459
12055.0,31.357389450073242,-15.590118408203125,0.7402883768081665,7.208245277404785,-2.5859031677246094,0.42029234766960144,-6.525330066680908,0.36175796389579773,-0.06698685884475708
12056.0,31.357242584228516,-14.302420616149902,0.7372960448265076,7.3727030754089355,-3.2110352516174316,0.27490267157554626,-6.1954874992370605,0.4136369228363037,-0.09447863698005676
12057.0,31.35711669921875,-13.060098648071289,0.734645426273346,7.6055073738098145,-3.733560800552368,0.35138922929763794,-5.810074329376221,0.4544289708137512,-0.07189642637968063
12058.0,31.35700798034668,-11.861556053161621,0.7323160171508789,7.772701740264893,-4.282421588897705,0.365613728761673,-5.399977684020996,0.4266132712364197,-0.039438750594854355
12059.0,31.356903076171875,-10.705245018005371,0.7302832007408142,8.047329902648926,-4.4984564781188965,0.46857449412345886,-4.944983005523682,0.44745010137557983,-0.1008315235376358
12060.0,31.3568115234375,-9.589675903320312,0.7285217642784119,8.191559791564941,-4.832521438598633,0.34751608967781067,-4.516204833984375,0.4295506775379181,-0.06949152797460556
12061.0,31.356733322143555,-8.513413429260254,0.7270075082778931,8.308234214782715,-5.270965099334717,0.3122914135456085,-4.029646396636963,0.39635536074638367,-0.06457299739122391
12062.0,31.35666275024414,-7.4750752449035645,0.7257171273231506,8.475055694580078,-5.391612529754639,0.31127139925956726,-3.551321029663086,0.4838055968284607,-0.07371767610311508
12063.0,31.356611251831055,-6.473320484161377,0.7246308922767639,8.463568687438965,-5.763480186462402,0.19443970918655396,-3.147885799407959,0.5347666144371033,0.04936089739203453
12064.0,31.356563568115234,-5.506859302520752,0.7237293720245361,8.58575439453125,-5.828475475311279,0.24780595302581787,-2.691455364227295,0.5207682251930237,0.009425594471395016
12241.0,33.272159576416016,-48.749813079833984,0.8328903913497925,4.2662129402160645,12.032096862792969,0.4488421082496643,-2.3864433765411377,-0.1172480508685112,-0.20355378091335297
12242.0,33.27195739746094,-46.293487548828125,0.8312668204307556,3.9705755710601807,10.998720169067383,-0.3911336660385132,-3.3891489505767822,-0.13620728254318237,0.07893773168325424
12243.0,33.271732330322266,-43.923736572265625,0.8283029198646545,4.403336048126221,10.131056785583496,0.3383345901966095,-4.321049213409424,-0.05436593294143677,-0.19139721989631653
12244.0,33.271488189697266,-41.637508392333984,0.8243117928504944,4.437124729156494,9.079658508300781,-0.29534998536109924,-4.981597423553467,-0.06923925131559372,0.04712489992380142
12245.0,33.271244049072266,-39.43185806274414,0.8195866346359253,4.8333420753479,8.055378913879395,0.13604046404361725,-5.630234241485596,-0.04438677430152893,-0.16171914339065552
12246.0,33.2709846496582,-37.303951263427734,0.8143643140792847,5.011253833770752,7.103201866149902,-0.27703940868377686,-6.121986389160156,-0.009705821983516216,-0.0055402107536792755
12247.0,33.270721435546875,-35.251033782958984,0.8088459372520447,5.548427104949951,6.456326007843018,0.11460184305906296,-6.554187297821045,-0.013950802385807037,-0.19699563086032867
12248.0,33.27046203613281,-33.27046585083008,0.8031883835792542,5.674740791320801,5.560420513153076,-0.33065566420555115,-6.818088531494141,0.029749559238553047,-0.035157039761543274
12249.0,33.27021408081055,-31.359708786010742,0.7975258231163025,6.017818450927734,4.889348983764648,-0.07311829924583435,-7.00813627243042,0.04528659209609032,-0.10720278322696686
12250.0,33.26996994018555,-29.516279220581055,0.7919590473175049,6.185423851013184,4.071533203125,-0.38545820116996765,-7.212604522705078,0.023899350315332413,-0.04266759753227234
12251.0,33.26974105834961,-27.737821578979492,0.7865709066390991,6.643309593200684,3.335019826889038,-0.09800264239311218,-7.309323310852051,0.09712085127830505,-0.07814077287912369
12252.0,33.26951599121094,-26.022037506103516,0.7814225554466248,6.861716270446777,2.560873031616211,-0.38093021512031555,-7.364113807678223,0.10933826863765717,-0.053376588970422745
12253.0,33.26930618286133,-24.36672592163086,0.7765550017356873,7.234019756317139,1.9421311616897583,-0.25975343585014343,-7.352768421173096,0.09656316041946411,-0.16874323785305023
12254.0,33.269100189208984,-22.76974105834961,0.7719966173171997,7.496766090393066,1.320900321006775,-0.3628520965576172,-7.2950663566589355,0.1442604660987854,-0.09031343460083008
12255.0,33.268917083740234,-21.229032516479492,0.7677677869796753,7.826797008514404,0.689811110496521,-0.25601622462272644,-7.205183982849121,0.11386738717556,-0.13359715044498444
12256.0,33.268733978271484,-19.74262237548828,0.7638779282569885,8.130230903625488,0.11136650294065475,-0.3559008836746216,-7.041141033172607,0.06806539744138718,-0.06193000078201294
12257.0,33.268558502197266,-18.3085880279541,0.7603264451026917,8.475958824157715,-0.49782541394233704,-0.3666186034679413,-6.832982063293457,0.1220133900642395,-0.10586797446012497
12258.0,33.268402099609375,-16.925092697143555,0.7571072578430176,8.806388854980469,-1.0334912538528442,-0.39851832389831543,-6.484482765197754,0.14420181512832642,-0.03602990135550499
12259.0,33.26826095581055,-15.59034538269043,0.7542100548744202,9.090256690979004,-1.6890126466751099,-0.3209516704082489,-6.167201519012451,0.12616844475269318,-0.09060817211866379
12260.0,33.26812744140625,-14.30263614654541,0.751618504524231,9.371407508850098,-2.0396816730499268,-0.37943318486213684,-5.834507942199707,0.17884014546871185,-0.08256206661462784
12261.0,33.268009185791016,-13.060301780700684,0.7493175864219666,9.571825981140137,-2.6058104038238525,-0.3730935752391815,-5.431131362915039,0.1583021879196167,-0.025200549513101578
12262.0,33.26790237426758,-11.861741065979004,0.747288703918457,9.84389877319336,-2.9539990425109863,-0.3750811815261841,-5.016668319702148,0.0768057331442833,-0.05475877970457077
12263.0,33.26780700683594,-10.705414772033691,0.7455127239227295,10.110453605651855,-3.1783010959625244,-0.3987145721912384,-4.603916645050049,0.1353461891412735,-0.025168851017951965
12264.0,33.26772689819336,-9.58983325958252,0.7439698576927185,10.207535743713379,-3.5878655910491943,-0.585486114025116,-4.213996410369873,0.1851036250591278,-0.022524850443005562
12265.0,33.267642974853516,-8.513556480407715,0.7426390051841736,10.441978454589844,-3.7730062007904053,-0.39621472358703613,-3.774076223373413,0.16288168728351593,-0.08406390249729156
12266.0,33.267581939697266,-7.47520112991333,0.7415016889572144,10.58621883392334,-3.886584997177124,-0.41385719180107117,-3.365335702896118,0.2042882740497589,-0.07205889374017715
12267.0,33.26753234863281,-6.473430156707764,0.7405420541763306,10.603487968444824,-4.20842981338501,-0.4948255717754364,-3.021843194961548,0.19857466220855713,-0.0023214565590023994
12268.0,33.26748275756836,-5.506954669952393,0.7397437691688538,10.864120483398438,-4.111902236938477,-0.14026182889938354,-2.5958242416381836,0.1809234768152237,-0.04308580979704857
12445.0,35.25261306762695,-48.74984359741211,0.832987368106842,3.6284594535827637,10.13955020904541,0.4020417034626007,-2.2908496856689453,-0.06573265790939331,-0.12130450457334518
12446.0,35.25242233276367,-46.293575286865234,0.8317078948020935,3.5967631340026855,9.554368019104004,-0.3097418546676636,-3.2202932834625244,-0.05880112200975418,0.12205617129802704
12447.0,35.25221633911133,-43.92386245727539,0.8293424248695374,4.218925952911377,8.954405784606934,0.315245121717453,-4.02396821975708,-0.03239543363451958,-0.1332729309797287
12448.0,35.25199508666992,-41.637664794921875,0.8261203169822693,4.527437210083008,8.180485725402832,-0.10134090483188629,-4.689548015594482,-0.03660475090146065,0.04688166081905365
12449.0,35.251766204833984,-39.432037353515625,0.822275698184967,5.083527088165283,7.398568153381348,0.2770582437515259,-5.333527565002441,0.006183757912367582,-0.13409073650836945
12450.0,35.251522064208984,-37.30415725708008,0.8180060982704163,5.440205097198486,6.597840309143066,-0.10284353792667389,-5.779239177703857,0.038617219775915146,0.06299836188554764
12451.0,35.251277923583984,-35.25125503540039,0.8134812712669373,6.101565361022949,6.036548137664795,0.2741422951221466,-6.2257490158081055,0.09609156847000122,-0.10267733037471771
12452.0,35.25102615356445,-33.27070999145508,0.8088339567184448,6.4910054206848145,5.338757038116455,0.055272072553634644,-6.49758243560791,0.14729927480220795,-0.016983898356556892
12453.0,35.250789642333984,-31.35995864868164,0.8041757345199585,7.100216865539551,4.861384868621826,0.4013271927833557,-6.724835395812988,0.19312474131584167,-0.07365211099386215
12454.0,35.25056457519531,-29.516542434692383,0.7995900511741638,7.356646537780762,4.147071838378906,0.07559467107057571,-6.858462810516357,0.27060091495513916,-0.013836399652063847
12455.0,35.25034713745117,-27.738094329833984,0.7951465845108032,7.947918891906738,3.665069818496704,0.42100101709365845,-6.972423553466797,0.32476821541786194,-0.12252582609653473
12456.0,35.25013732910156,-26.022310256958008,0.790896475315094,8.362021446228027,3.136955738067627,0.26949575543403625,-7.010944843292236,0.29565367102622986,-0.0996684730052948
12457.0,35.249935150146484,-24.366992950439453,0.7868748903274536,8.826308250427246,2.6059558391571045,0.3192497193813324,-6.972184181213379,0.2963196039199829,-0.09930730611085892
12458.0,35.249752044677734,-22.77000617980957,0.7831064462661743,9.297181129455566,2.1394176483154297,0.3697371780872345,-6.858139991760254,0.3214251697063446,-0.055351048707962036
12459.0,35.249568939208984,-21.229299545288086,0.7796083688735962,9.718857765197754,1.6697646379470825,0.42425602674484253,-6.766694068908691,0.3437202572822571,-0.09334694594144821
12460.0,35.249393463134766,-19.742883682250977,0.7763867974281311,10.061375617980957,1.2153162956237793,0.3218744993209839,-6.605273723602295,0.37738990783691406,-0.03257973864674568
12461.0,35.24924087524414,-18.3088436126709,0.7734407186508179,10.45758056640625,0.8078093528747559,0.40447214245796204,-6.462386131286621,0.404889315366745,-0.028246687725186348
12462.0,35.24909591674805,-16.925336837768555,0.7707657814025879,10.786643028259277,0.4181918501853943,0.37711116671562195,-6.200919151306152,0.46055886149406433,0.023896239697933197
12463.0,35.248958587646484,-15.590577125549316,0.7683534622192383,11.105292320251465,-0.1270148605108261,0.4212532639503479,-5.890544414520264,0.5287525653839111,-0.04369605332612991
12464.0,35.248836517333984,-14.302854537963867,0.7661921977996826,11.547563552856445,-0.3374125361442566,0.4373769164085388,-5.58582878112793,0.5123545527458191,-0.08503071963787079
12465.0,35.248722076416016,-13.060506820678711,0.7642694711685181,11.836892127990723,-0.7951926589012146,0.4090866446495056,-5.218364715576172,0.4483394920825958,-0.04934219270944595
12466.0,35.24863052368164,-11.861931800842285,0.7625704407691956,12.150300979614258,-1.0249346494674683,0.44073840975761414,-4.812053203582764,0.5276771187782288,-0.037933554500341415
12467.0,35.248538970947266,-10.70559024810791,0.761079728603363,12.472564697265625,-1.1923627853393555,0.5777869820594788,-4.434103488922119,0.6310258507728577,0.025941330939531326
12468.0,35.24846267700195,-9.589991569519043,0.759782075881958,12.699980735778809,-1.417639970779419,0.5525720715522766,-4.03065824508667,0.5865185856819153,0.020110690966248512
12469.0,35.24839401245117,-8.51369857788086,0.7586607933044434,12.921530723571777,-1.6110390424728394,0.6158214211463928,-3.6312947273254395,0.5284866690635681,-0.07084058970212936
12470.0,35.24833679199219,-7.475329399108887,0.75770103931427,13.036941528320312,-1.7641526460647583,0.526116132736206,-3.2262377738952637,0.5619820952415466,-0.05139148607850075
12471.0,35.248287200927734,-6.473544120788574,0.7568894028663635,13.128165245056152,-2.0617945194244385,0.40601208806037903,-2.8637285232543945,0.6474829316139221,-0.12105195224285126
12472.0,35.24824523925781,-5.507052898406982,0.7562121152877808,13.413854598999023,-1.9570075273513794,0.5044464468955994,-2.4950599670410156,0.6610545516014099,-0.13211560249328613
12649.0,37.305389404296875,-48.749874114990234,0.8330816626548767,2.977794885635376,8.196454048156738,0.25939109921455383,-2.1725714206695557,-0.10181855410337448,-0.10017603635787964
12650.0,37.30521011352539,-46.29365539550781,0.8321356177330017,3.2841877937316895,8.135016441345215,-0.27221301198005676,-3.006904363632202,-0.09756945818662643,0.09790349006652832
12651.0,37.305023193359375,-43.923980712890625,0.8303483724594116,4.007225513458252,7.739001750946045,0.1413825899362564,-3.725209951400757,-0.054348018020391464,-0.10868693143129349
12652.0,37.30482482910156,-41.637821197509766,0.8278713822364807,4.454213619232178,7.0528035163879395,-0.34859687089920044,-4.3642354011535645,-0.07821553200483322,0.07588916271924973
12653.0,37.30461502075195,-39.43222427368164,0.8248862624168396,5.279313564300537,6.566882133483887,0.06786219030618668,-4.990037441253662,-0.05518057942390442,-0.08583920449018478
12654.0,37.30439376831055,-37.30436325073242,0.8215497732162476,5.821358680725098,5.980174541473389,-0.241640105843544,-5.431190013885498,-0.07390414923429489,0.08212899416685104
12655.0,37.304168701171875,-35.25148391723633,0.818000316619873,6.612575531005859,5.475770950317383,-0.033165160566568375,-5.8588032722473145,-0.03830912336707115,-0.06980706006288528
12656.0,37.303951263427734,-33.27095031738281,0.8143473267555237,7.160252094268799,4.82298469543457,-0.35943272709846497,-6.095798969268799,0.007765526883304119,0.03732392564415932
12657.0,37.30373001098633,-31.36021614074707,0.8106818795204163,7.930075645446777,4.453901767730713,-0.13422803580760956,-6.321074962615967,0.03410304710268974,0.002964166458696127
12658.0,37.30351638793945,-29.51681137084961,0.8070701360702515,8.46324634552002,3.919060230255127,-0.3785445988178253,-6.441088676452637,0.07444348931312561,0.014943895861506462
12659.0,37.30331802368164,-27.73836898803711,0.8035678267478943,9.163519859313965,3.5747830867767334,-0.2737126052379608,-6.508175373077393,0.04976692795753479,-0.06860702484846115
12660.0,37.30312728881836,-26.022586822509766,0.8002153635025024,9.791142463684082,3.280428171157837,-0.3428390324115753,-6.580115795135498,0.01474839262664318,-0.05009884014725685
12661.0,37.30293655395508,-24.367267608642578,0.7970404028892517,10.345549583435059,2.875204086303711,-0.38057568669319153,-6.552539825439453,0.05731647461652756,-0.026518139988183975
12662.0,37.302764892578125,-22.770282745361328,0.794063150882721,10.877965927124023,2.495208978652954,-0.46396180987358093,-6.4559245109558105,0.07198116183280945,-0.028620166704058647
12663.0,37.3026008605957,-21.229570388793945,0.7912988066673279,11.433954238891602,2.131213426589966,-0.42427676916122437,-6.3433942794799805,0.10390865802764893,-0.05941707640886307
12664.0,37.30244445800781,-19.743146896362305,0.7887511849403381,11.958739280700684,1.864060401916504,-0.4765019416809082,-6.1526384353637695,0.1713576316833496,-0.022854404523968697
12665.0,37.302303314208984,-18.309099197387695,0.7864193916320801,12.416984558105469,1.4550048112869263,-0.48217636346817017,-5.982513904571533,0.15476436913013458,-0.03125520423054695
12666.0,37.30216598510742,-16.925582885742188,0.7842998504638672,12.920905113220215,1.2594704627990723,-0.5091800689697266,-5.7251057624816895,0.12552016973495483,-0.069340281188488
12667.0,37.30204391479492,-15.590813636779785,0.782386064529419,13.353551864624023,0.9492259621620178,-0.4865538477897644,-5.430766582489014,0.15409936010837555,-0.013237535953521729
12668.0,37.301937103271484,-14.303077697753906,0.7806697487831116,13.705301284790039,0.6581830382347107,-0.60923171043396,-5.159238338470459,0.13226918876171112,-0.011234136298298836
12669.0,37.30183410644531,-13.060715675354004,0.7791401147842407,14.112083435058594,0.44708946347236633,-0.5066549181938171,-4.8538594245910645,0.10888274013996124,-0.05562281236052513
12670.0,37.3017463684082,-11.862128257751465,0.777786374092102,14.401823043823242,0.25042521953582764,-0.5253505110740662,-4.510159015655518,0.19862590730190277,-0.01656019128859043
12671.0,37.30166244506836,-10.705771446228027,0.7765970826148987,14.624849319458008,0.041619736701250076,-0.6498205065727234,-4.143918991088867,0.21001960337162018,0.002149066189303994
12672.0,37.30159378051758,-9.590155601501465,0.7755597829818726,14.89826774597168,-0.10222827643156052,-0.6968507766723633,-3.7637791633605957,0.15064488351345062,0.0071927765384316444
12673.0,37.30152893066406,-8.513848304748535,0.7746629118919373,15.162450790405273,-0.2725841701030731,-0.6350097060203552,-3.4274370670318604,0.15939123928546906,-0.04537852108478546
12674.0,37.30147933959961,-7.475461006164551,0.7738948464393616,15.409662246704102,-0.28455352783203125,-0.578555166721344,-3.082895040512085,0.16642536222934723,0.003188431728631258
12675.0,37.30142593383789,-6.473659992218018,0.7732438445091248,15.48139762878418,-0.5156435966491699,-0.576470136642456,-2.689943552017212,0.2101369947195053,-0.039484087377786636
12676.0,37.3013916015625,-5.50715446472168,0.7726995944976807,15.705840110778809,-0.4201605021953583,-0.42827504873275757,-2.3403127193450928,0.2162921130657196,-0.04176976531744003
12853.0,39.43313217163086,-48.74990463256836,0.8331691026687622,2.4163739681243896,6.383698463439941,0.18147240579128265,-1.9847019910812378,-0.07446157187223434,-0.07316309958696365
12854.0,39.43296813964844,-46.29373550415039,0.8325323462486267,3.0621068477630615,6.751532554626465,-0.16764116287231445,-2.670125722885132,-0.06641150265932083,0.09478998929262161
12855.0,39.43280029296875,-43.92410659790039,0.8312824964523315,3.9736900329589844,6.6236796379089355,0.25661012530326843,-3.3425729274749756,0.010121055878698826,-0.09672468155622482
12856.0,39.43263244628906,-41.63798522949219,0.8295040726661682,4.656309127807617,6.202025890350342,-0.03716062009334564,-3.948495388031006,0.059672240167856216,0.06637764722108841
12857.0,39.43244552612305,-39.43241882324219,0.8273324370384216,5.7027387619018555,5.9218831062316895,0.3059898614883423,-4.554201126098633,0.12180089205503464,-0.04682257026433945
12858.0,39.432254791259766,-37.3045768737793,0.8248862028121948,6.448203086853027,5.506882190704346,0.07239977270364761,-5.033646106719971,0.14005078375339508,0.0831148624420166
12859.0,39.43205642700195,-35.251712799072266,0.8222713470458984,7.353275299072266,5.233994960784912,0.3030249774456024,-5.4303507804870605,0.17113973200321198,-0.08037128299474716
12860.0,39.43185806274414,-33.27119827270508,0.8195728063583374,8.121382713317871,4.777122497558594,0.14401674270629883,-5.680996417999268,0.20766660571098328,0.05311299115419388
12861.0,39.43166732788086,-31.3604736328125,0.8168622255325317,9.058063507080078,4.541209697723389,0.36297720670700073,-5.867133617401123,0.23769530653953552,-0.0024334501940757036
12862.0,39.43148422241211,-29.51707649230957,0.8141903877258301,9.836800575256348,4.221408367156982,0.27556145191192627,-5.963527679443359,0.27713581919670105,-0.0154695650562644
12863.0,39.43130111694336,-27.738643646240234,0.8115987181663513,10.681703567504883,4.0634284019470215,0.3498999774456024,-6.003265380859375,0.2945132553577423,0.009962745942175388
12864.0,39.43112564086914,-26.02286148071289,0.8091171979904175,11.428442001342773,3.882591485977173,0.36109045147895813,-6.103271961212158,0.31390976905822754,0.03742660582065582
12865.0,39.430965423583984,-24.367549896240234,0.8067659735679626,12.167481422424316,3.7274184226989746,0.4892079532146454,-6.070505142211914,0.34840887784957886,-0.009103852324187756
12866.0,39.43080520629883,-22.77055549621582,0.8045607209205627,12.774942398071289,3.4948956966400146,0.4255712330341339,-6.01057767868042,0.3535049557685852,-0.016827760264277458
12867.0,39.430660247802734,-21.229841232299805,0.8025127053260803,13.493865013122559,3.4100069999694824,0.5931580066680908,-5.895804405212402,0.3977515995502472,-0.030360879376530647
12868.0,39.43051528930664,-19.743408203125,0.8006247282028198,14.11479377746582,3.286515712738037,0.5526003837585449,-5.7339558601379395,0.45875829458236694,-0.044778428971767426
12869.0,39.430389404296875,-18.309354782104492,0.7988954782485962,14.657934188842773,2.994678497314453,0.5497923493385315,-5.531027793884277,0.4821874499320984,-0.028040500357747078
12870.0,39.430267333984375,-16.925827026367188,0.7973231077194214,15.223389625549316,2.876260995864868,0.5727490782737732,-5.255950450897217,0.5129859447479248,-0.046888530254364014
12871.0,39.43015670776367,-15.591048240661621,0.7959023714065552,15.716978073120117,2.7059803009033203,0.5807426571846008,-4.950473308563232,0.5149329304695129,-0.02895897440612316
12872.0,39.430057525634766,-14.303297996520996,0.7946277260780334,16.259737014770508,2.652022361755371,0.6649138331413269,-4.642109394073486,0.5069959163665771,-0.02462257631123066
12873.0,39.42997360229492,-13.060920715332031,0.7934901714324951,16.751306533813477,2.54506778717041,0.7679873108863831,-4.343173503875732,0.5479282736778259,-0.01854907162487507
12874.0,39.42989730834961,-11.86231803894043,0.7924827933311462,17.10069465637207,2.3961079120635986,0.6524736285209656,-4.017494201660156,0.53401118516922,0.049367569386959076
12875.0,39.4298210144043,-10.705944061279297,0.7915974259376526,17.498567581176758,2.366941452026367,0.6969438195228577,-3.6479721069335938,0.5217586159706116,0.007324453443288803
12876.0,39.42975997924805,-9.590315818786621,0.7908239960670471,17.81141471862793,2.2502596378326416,0.7366102933883667,-3.302978038787842,0.6216848492622375,-0.0511833056807518
12877.0,39.42970657348633,-8.513991355895996,0.7901553511619568,18.085451126098633,2.1750142574310303,0.7311440110206604,-2.987992286682129,0.6871640682220459,0.018486015498638153
12878.0,39.42966079711914,-7.475589752197266,0.7895828485488892,18.333633422851562,2.0645768642425537,0.7333517074584961,-2.69828462600708,0.6864152550697327,0.07628221064805984
12879.0,39.429622650146484,-6.47377347946167,0.7890967130661011,18.59107780456543,2.090902090072632,0.7123293280601501,-2.3827121257781982,0.6672490835189819,-0.0006233072490431368
12880.0,39.42958450317383,-5.507252216339111,0.7886896133422852,18.628293991088867,1.843009114265442,0.4917437732219696,-2.060849905014038,0.6446926593780518,-0.012973306700587273
13057.0,41.6385612487793,-48.74993133544922,0.8332447409629822,1.960752248764038,4.771647930145264,0.14311768114566803,-1.7465009689331055,-0.07637011259794235,-0.012574738822877407
13058.0,41.638431549072266,-46.29381561279297,0.83287513256073,2.836954116821289,5.316781520843506,-0.22269847989082336,-2.2736504077911377,-0.09776206314563751,0.11277635395526886
13059.0,41.6382942199707,-43.92422866821289,0.8320960402488708,3.9276201725006104,5.3241119384765625,0.004345469176769257,-2.8861398696899414,-0.05651268735527992,-0.05520946532487869
13060.0,41.638153076171875,-41.63813781738281,0.8309397101402283,4.8725810050964355,5.125455379486084,-0.19938312470912933,-3.4627633094787598,-0.08766485005617142,0.09515087306499481
13061.0,41.638004302978516,-39.43260192871094,0.829502522945404,6.007580757141113,4.992020130157471,-0.04702872410416603,-4.049003601074219,-0.09145478904247284,-0.006524058990180492
13062.0,41.63784408569336,-37.30479049682617,0.8278700113296509,6.955451488494873,4.711191654205322,-0.3325497806072235,-4.575586318969727,-0.041282739490270615,0.11026711016893387
13063.0,41.63767623901367,-35.251953125,0.8261176347732544,8.048599243164062,4.655683994293213,-0.20583701133728027,-4.941935062408447,-0.021985890343785286,0.004011501092463732
13064.0,41.63751220703125,-33.27145004272461,0.824302613735199,9.00801944732666,4.422565937042236,-0.3552541136741638,-5.1605000495910645,-0.030581219121813774,0.05422952026128769
13065.0,41.63734817504883,-31.360734939575195,0.8224768042564392,10.09121322631836,4.312107086181641,-0.2820444405078888,-5.336474895477295,-0.018054679036140442,0.001055266591720283
13066.0,41.63718795776367,-29.51734733581543,0.8206785917282104,11.075484275817871,4.192544937133789,-0.371974915266037,-5.383984088897705,-0.024788763374090195,0.024262625724077225
13067.0,41.63703536987305,-27.738908767700195,0.8189345598220825,12.040602684020996,4.138686656951904,-0.4014863669872284,-5.396119117736816,-0.01712382584810257,0.013606860302388668
13068.0,41.63689041137695,-26.023136138916016,0.8172641396522522,12.938844680786133,4.060239315032959,-0.4776079058647156,-5.44254207611084,0.006520882714539766,0.06491369009017944
13069.0,41.636749267578125,-24.367820739746094,0.8156818747520447,13.888944625854492,4.041414737701416,-0.4078295826911926,-5.360246658325195,0.024776246398687363,0.050907161086797714
13070.0,41.63661193847656,-22.770830154418945,0.8141985535621643,14.684844017028809,3.9210875034332275,-0.5436112880706787,-5.27302360534668,0.05372375622391701,0.024584271013736725
13071.0,41.6364860534668,-21.230104446411133,0.8128213286399841,15.494985580444336,3.9140429496765137,-0.5845299363136292,-5.141420841217041,0.060142431408166885,-0.009776622988283634
13072.0,41.63636779785156,-19.743667602539062,0.8115519285202026,16.249006271362305,3.902064800262451,-0.6631837487220764,-5.022773265838623,0.07846661657094955,0.020168058574199677
13073.0,41.63625717163086,-18.309602737426758,0.81038898229599,17.00272560119629,3.8783020973205566,-0.5654200911521912,-4.87721061706543,0.09365261346101761,0.0484643317759037
13074.0,41.63615798950195,-16.926069259643555,0.8093308210372925,17.608970642089844,3.7482545375823975,-0.6363158822059631,-4.676700115203857,0.06715855002403259,0.03625490143895149
13075.0,41.63606643676758,-15.591272354125977,0.8083747625350952,18.255464553833008,3.7890305519104004,-0.6792038679122925,-4.402522563934326,0.06250980496406555,-0.009324981831014156
13076.0,41.635986328125,-14.303511619567871,0.8075162172317505,18.84437370300293,3.7891480922698975,-0.6911916136741638,-4.15482759475708,0.08668573200702667,-0.015498763881623745
13077.0,41.63590621948242,-13.06112003326416,0.8067501783370972,19.297910690307617,3.664695978164673,-0.7562272548675537,-3.937476873397827,0.13639570772647858,0.056305237114429474
13078.0,41.63583755493164,-11.862504005432129,0.8060716390609741,19.73435401916504,3.6384005546569824,-0.8390892744064331,-3.66141939163208,0.14704249799251556,0.0350898914039135
13079.0,41.63578414916992,-10.706116676330566,0.805475115776062,20.214658737182617,3.665428638458252,-0.6949344873428345,-3.354086399078369,0.120182104408741,-0.046059999614953995
13080.0,41.63572692871094,-9.590470314025879,0.804953932762146,20.505882263183594,3.560344696044922,-0.7969598770141602,-3.0586585998535156,0.12035393714904785,-0.040073100477457047
13081.0,41.635684967041016,-8.51413345336914,0.8045035004615784,20.78624153137207,3.5459628105163574,-0.8533744215965271,-2.7768900394439697,0.1061972826719284,0.04539484530687332
13082.0,41.63564682006836,-7.475716590881348,0.8041181564331055,21.041501998901367,3.4282400608062744,-0.7713566422462463,-2.493079900741577,0.10696268826723099,0.0073731024749577045
13083.0,41.6356086730957,-6.473885536193848,0.8037904500961304,21.340787887573242,3.531463384628296,-0.7348412871360779,-2.1908133029937744,0.11995463818311691,-0.07124122232198715
13084.0,41.63557815551758,-5.507350921630859,0.8035158514976501,21.518110275268555,3.4018423557281494,-0.764226496219635,-1.928356409072876,0.13110363483428955,-0.0417606495320797
13261.0,43.92454528808594,-48.74994659423828,0.8333024978637695,1.6700983047485352,3.413933277130127,0.15616339445114136,-1.4055241346359253,-0.03784507140517235,0.06817200034856796
13262.0,43.9244384765625,-46.293880462646484,0.8331385850906372,2.853048086166382,4.058777332305908,-0.05152786523103714,-1.7840012311935425,-0.033005062490701675,0.10146396607160568
13263.0,43.92434310913086,-43.92434310913086,0.8327355980873108,4.128260135650635,4.170770168304443,0.20738591253757477,-2.34462571144104,0.03637275472283363,-0.03923320397734642
13264.0,43.92422866821289,-41.6382942199707,0.8320947289466858,5.240119457244873,4.193477630615234,0.08921952545642853,-2.942167282104492,0.07740945369005203,0.1106293722987175
13265.0,43.924110412597656,-39.43278884887695,0.8312788605690002,6.405585289001465,4.289656162261963,0.22066614031791687,-3.4654386043548584,0.1010528951883316,0.014083445072174072
13266.0,43.92399597167969,-37.30500411987305,0.8303442597389221,7.546120643615723,4.294620037078857,0.17762190103530884,-3.9331986904144287,0.11885129660367966,0.09050267934799194
13267.0,43.92386245727539,-35.2521858215332,0.829340398311615,8.882579803466797,4.48027229309082,0.33882424235343933,-4.255264759063721,0.10987670719623566,0.05861043930053711
13268.0,43.923736572265625,-33.271697998046875,0.8282976150512695,10.110819816589355,4.517003536224365,0.332823246717453,-4.445824146270752,0.16156913340091705,0.06752404570579529
13269.0,43.92361068725586,-31.360994338989258,0.8272467255592346,11.32938289642334,4.574531078338623,0.4107199013233185,-4.651332378387451,0.29165148735046387,0.06591273099184036
13270.0,43.92348861694336,-29.517610549926758,0.8262133598327637,12.53061294555664,4.732035160064697,0.41532495617866516,-4.7293620109558105,0.3492206335067749,0.09807156771421432
13271.0,43.923370361328125,-27.739179611206055,0.8252120614051819,13.717057228088379,4.902331829071045,0.5046139359474182,-4.801913738250732,0.3837721347808838,0.014155121520161629
13272.0,43.923248291015625,-26.023408889770508,0.8242522478103638,14.851103782653809,5.075857162475586,0.5481438636779785,-4.849555492401123,0.39482587575912476,0.031711429357528687
13273.0,43.923133850097656,-24.368087768554688,0.8233441114425659,15.928458213806152,5.15943717956543,0.558474063873291,-4.78318977355957,0.39474058151245117,0.04811456799507141
13274.0,43.923038482666016,-22.771089553833008,0.8224931955337524,16.95856285095215,5.276958465576172,0.5683353543281555,-4.712222576141357,0.4763956665992737,0.01682610996067524
13275.0,43.922935485839844,-21.230363845825195,0.8217037916183472,17.92211151123047,5.372683525085449,0.6117419600486755,-4.5735554695129395,0.4921453595161438,-0.02771165780723095
13276.0,43.92284393310547,-19.74391746520996,0.8209768533706665,18.866518020629883,5.585074424743652,0.6644842624664307,-4.424266815185547,0.4824294447898865,0.06313823908567429
13277.0,43.92275619506836,-18.309844970703125,0.820311427116394,19.703935623168945,5.635122299194336,0.7170714735984802,-4.2563252449035645,0.528351366519928,0.05887051671743393
13278.0,43.922672271728516,-16.926294326782227,0.8197055459022522,20.502973556518555,5.718226909637451,0.7391223311424255,-4.017846584320068,0.5368149280548096,0.006852791178971529
13279.0,43.922603607177734,-15.591492652893066,0.8191589117050171,21.2547607421875,5.88038969039917,0.7471356987953186,-3.7351109981536865,0.571571409702301,0.02770260162651539
13280.0,43.922542572021484,-14.303717613220215,0.8186678886413574,21.915525436401367,5.9766082763671875,0.8194543123245239,-3.5271434783935547,0.6136623024940491,0.015473218634724617
13281.0,43.922481536865234,-13.061315536499023,0.8182297348976135,22.466552734375,5.954334735870361,0.8117652535438538,-3.308288335800171,0.6431977152824402,0.0373234786093235
13282.0,43.922428131103516,-11.862685203552246,0.8178418874740601,23.05088996887207,6.107861042022705,0.8201785683631897,-3.0467209815979004,0.6943540573120117,0.004418488591909409
13283.0,43.92238998413086,-10.706282615661621,0.8175001740455627,23.530139923095703,6.101009845733643,0.8761547803878784,-2.7866921424865723,0.6724558472633362,-0.050887878984212875
13284.0,43.92233657836914,-9.590624809265137,0.8172021508216858,23.915950775146484,6.10847282409668,0.8028508424758911,-2.524493932723999,0.6643968224525452,0.016381675377488136
13285.0,43.922306060791016,-8.51427173614502,0.81694495677948,24.386608123779297,6.23851203918457,0.9255905151367188,-2.283545732498169,0.7655664086341858,0.019533826038241386
13286.0,43.92227554321289,-7.475841045379639,0.8167247772216797,24.754825592041016,6.259559154510498,1.0309170484542847,-2.0663716793060303,0.7784922122955322,-0.010087083093822002
13287.0,43.922245025634766,-6.473995685577393,0.8165377378463745,24.937759399414062,6.197147846221924,0.8758329153060913,-1.7939127683639526,0.6788869500160217,0.007062043994665146
13288.0,43.92222595214844,-5.507445812225342,0.8163806200027466,25.141691207885742,6.188762187957764,0.8064402341842651,-1.5490456819534302,0.7026684284210205,0.05329648032784462
13465.0,46.294002532958984,-48.74996566772461,0.8333305716514587,1.405816912651062,2.2853450775146484,0.056033965200185776,-0.9378662705421448,-0.07562649250030518,0.05341392010450363
13466.0,46.29393005371094,-46.293941497802734,0.8332866430282593,2.746757745742798,2.662933349609375,-0.19950780272483826,-1.1967145204544067,-0.15564046800136566,0.0963171198964119
13467.0,46.29387664794922,-43.92444610595703,0.8331371545791626,4.085014820098877,2.8075437545776367,-0.03285297751426697,-1.7094049453735352,-0.1533522754907608,0.010472008027136326
13468.0,46.29380798339844,-41.6384391784668,0.8328747153282166,5.263421535491943,2.97458815574646,-0.19115719199180603,-2.2479918003082275,-0.12202382832765579,0.12789897620677948
13469.0,46.29373550415039,-39.4329719543457,0.8325315117835999,6.63277006149292,3.310575246810913,-0.18411237001419067,-2.725471258163452,-0.10439937561750412,0.06227388605475426
13470.0,46.29365539550781,-37.305206298828125,0.8321342468261719,8.027230262756348,3.54872465133667,-0.2961118519306183,-3.1392629146575928,-0.09796195477247238,0.12862764298915863
13471.0,46.293575286865234,-35.25240707397461,0.8317080140113831,9.565522193908691,3.8956758975982666,-0.2795085906982422,-3.425557851791382,-0.07924746721982956,0.12957161664962769
13472.0,46.29349136352539,-33.27193832397461,0.8312649130821228,10.990256309509277,4.092518329620361,-0.39011308550834656,-3.6007044315338135,-0.07321718335151672,0.17227889597415924
13473.0,46.29340362548828,-31.36124038696289,0.8308180570602417,12.427323341369629,4.315967559814453,-0.4290204644203186,-3.744777202606201,-0.04491814598441124,0.12437175214290619
13474.0,46.29332733154297,-29.517868041992188,0.8303803205490112,13.873732566833496,4.660877227783203,-0.5323103070259094,-3.766411066055298,-0.03484642878174782,0.14750896394252777
13475.0,46.29324722290039,-27.739439010620117,0.8299570083618164,15.298284530639648,4.998579025268555,-0.5859906077384949,-3.80715012550354,-0.06297051906585693,0.10760216414928436
13476.0,46.293174743652344,-26.02366828918457,0.8295508623123169,16.7219181060791,5.356965065002441,-0.5889061093330383,-3.8148036003112793,-0.04362567886710167,0.09788381308317184
13477.0,46.293094635009766,-24.36834716796875,0.8291677832603455,18.038923263549805,5.6157026290893555,-0.6572816967964172,-3.7458226680755615,0.00047751801321282983,0.12807048857212067
13478.0,46.293025970458984,-22.771345138549805,0.828809380531311,19.312410354614258,5.892285346984863,-0.6547298431396484,-3.694343090057373,0.03448875620961189,0.12025950849056244
13479.0,46.29296112060547,-21.230607986450195,0.8284772634506226,20.49750328063965,6.098641395568848,-0.6966442465782166,-3.58199143409729,0.08530973643064499,0.10069893300533295
13480.0,46.29290008544922,-19.74415397644043,0.8281717300415039,21.666362762451172,6.463180065155029,-0.7526859641075134,-3.485250234603882,0.09888769686222076,0.11289234459400177
13481.0,46.292842864990234,-18.31007194519043,0.8278918266296387,22.667787551879883,6.569581031799316,-0.8209434747695923,-3.3708643913269043,0.06778040528297424,0.09543716907501221
13482.0,46.292789459228516,-16.926511764526367,0.8276371955871582,23.65376091003418,6.829010486602783,-0.8271592855453491,-3.201995372772217,0.08416953682899475,0.08989512175321579
13483.0,46.29273986816406,-15.59169864654541,0.8274077773094177,24.446809768676758,6.943568229675293,-0.9698491096496582,-3.0153346061706543,0.13868339359760284,0.08835908770561218
13484.0,46.29269790649414,-14.303911209106445,0.827201783657074,25.323575973510742,7.223720073699951,-0.8233152627944946,-2.859009265899658,0.139151468873024,0.02589506097137928
13485.0,46.292659759521484,-13.061494827270508,0.8270178437232971,26.036863327026367,7.339638710021973,-0.8840274214744568,-2.6649973392486572,0.09938760101795197,0.05180740728974342
13486.0,46.29262924194336,-11.862853050231934,0.8268550634384155,26.691282272338867,7.483094215393066,-0.9742592573165894,-2.447794198989868,0.10697020590305328,0.08646857738494873
13487.0,46.292598724365234,-10.706437110900879,0.8267116546630859,27.29252815246582,7.593253135681152,-0.920259416103363,-2.2752912044525146,0.1090625450015068,0.06843501329421997
13488.0,46.292572021484375,-9.590765953063965,0.8265871405601501,27.679704666137695,7.556731700897217,-1.0474977493286133,-2.0571320056915283,0.10248257219791412,0.07061756402254105
13489.0,46.292545318603516,-8.514399528503418,0.8264793753623962,28.158435821533203,7.761279582977295,-0.946111798286438,-1.8332539796829224,0.1769188493490219,0.007495716214179993
13490.0,46.29253387451172,-7.475955486297607,0.8263872861862183,28.426801681518555,7.645184516906738,-1.0822161436080933,-1.6789252758026123,0.1969744861125946,0.06972100585699081
13491.0,46.29251480102539,-6.474094867706299,0.826309323310852,28.821992874145508,7.8102803230285645,-1.0216387510299683,-1.449112892150879,0.13808481395244598,0.04892754927277565
13492.0,46.292503356933594,-5.507533073425293,0.8262438178062439,29.140247344970703,7.950428485870361,-0.9711853265762329,-1.25892174243927,0.14239180088043213,0.08472562581300735
13669.0,48.74999237060547,-48.74999237060547,0.8333344459533691,1.1259523630142212,1.101445198059082,0.13181735575199127,-0.5283269882202148,0.005977414548397064,-0.006759572308510542
13670.0,48.74996566772461,-46.294002532958984,0.8333296179771423,2.3877217769622803,1.3939929008483887,0.07480014115571976,-0.908171534538269,-0.048107024282217026,0.05132200941443443
13671.0,48.74994659423828,-43.92455291748047,0.8333014845848083,3.496856451034546,1.6349915266036987,0.1230926439166069,-1.3134044408798218,-0.09508521854877472,0.03511670231819153
13672.0,48.74993133544922,-41.63857650756836,0.8332451581954956,4.815807342529297,1.9968606233596802,0.11329079419374466,-1.6449023485183716,-0.0644802451133728,0.08597178012132645
13673.0,48.74990463256836,-39.43313217163086,0.8331700563430786,6.424405097961426,2.5439035892486572,0.21468602120876312,-1.932206153869629,-0.013415874913334846,0.06381034106016159
13674.0,48.749874114990234,-37.30539321899414,0.8330825567245483,8.173388481140137,3.0858519077301025,0.247163787484169,-2.190876007080078,0.055985383689403534,0.10718535631895065
13675.0,48.74984359741211,-35.25260925292969,0.8329886198043823,10.098267555236816,3.7271978855133057,0.3918347954750061,-2.3939197063446045,0.1379268318414688,0.1152798980474472
13676.0,48.749813079833984,-33.272151947021484,0.8328903913497925,11.964661598205566,4.271237850189209,0.4047319293022156,-2.539332151412964,0.19469091296195984,0.14365635812282562
13677.0,48.74978256225586,-31.361467361450195,0.8327909708023071,13.839613914489746,4.836109638214111,0.46733358502388,-2.6397390365600586,0.2669433057308197,0.08546039462089539
13678.0,48.749752044677734,-29.518098831176758,0.8326948881149292,15.667145729064941,5.446701526641846,0.5441961884498596,-2.6813578605651855,0.34213998913764954,0.09986664354801178
13679.0,48.749725341796875,-27.73967170715332,0.8326025009155273,17.395811080932617,6.006709575653076,0.5910100936889648,-2.7355799674987793,0.33700892329216003,0.10654754936695099
13680.0,48.74969482421875,-26.02389907836914,0.8325141668319702,19.114471435546875,6.569046974182129,0.6930432915687561,-2.7670629024505615,0.35977694392204285,0.10891681164503098
13681.0,48.74966812133789,-24.368579864501953,0.8324312567710876,20.72804832458496,7.0715532302856445,0.733262300491333,-2.760667562484741,0.40339988470077515,0.13596075773239136
13682.0,48.74964141845703,-22.771575927734375,0.8323537111282349,22.24372100830078,7.507767677307129,0.7478227019309998,-2.742065668106079,0.4023616313934326,0.13215051591396332
13683.0,48.74962615966797,-21.2308349609375,0.8322820663452148,23.664573669433594,7.914368152618408,0.7634373307228088,-2.66422438621521,0.4580211341381073,0.1252574473619461
13684.0,48.74959945678711,-19.74437141418457,0.8322158455848694,25.037940979003906,8.404868125915527,0.8386625647544861,-2.596079111099243,0.5242281556129456,0.0930195301771164
13685.0,48.749576568603516,-18.31028175354004,0.8321551084518433,26.305967330932617,8.765961647033691,0.9143000245094299,-2.5119855403900146,0.5167708992958069,0.08114994317293167
13686.0,48.749568939208984,-16.926713943481445,0.8320997953414917,27.487300872802734,9.15548038482666,0.9755663275718689,-2.3913023471832275,0.531883716583252,0.10398878157138824
13687.0,48.74954605102539,-15.591890335083008,0.8320498466491699,28.49166488647461,9.444134712219238,0.9528908133506775,-2.25895094871521,0.589945375919342,0.0823683813214302
13688.0,48.749534606933594,-14.304093360900879,0.8320050835609436,29.449724197387695,9.784980773925781,1.0496292114257812,-2.131138801574707,0.6241132616996765,0.03974403813481331
13689.0,48.749515533447266,-13.061668395996094,0.8319650292396545,30.275829315185547,10.060115814208984,1.0814332962036133,-1.999882459640503,0.6292479634284973,0.06494713574647903
13690.0,48.749507904052734,-11.86301326751709,0.831929624080658,30.937694549560547,10.221820831298828,1.030910611152649,-1.8569085597991943,0.667543351650238,0.07759209722280502
13691.0,48.74949645996094,-10.706584930419922,0.8318983316421509,31.600603103637695,10.445456504821777,1.1027637720108032,-1.7419756650924683,0.6975772380828857,0.07302729040384293
13692.0,48.74948501586914,-9.590899467468262,0.8318715691566467,32.148197174072266,10.548996925354004,1.0752447843551636,-1.5925099849700928,0.6457696557044983,0.05948501080274582
13693.0,48.749481201171875,-8.514521598815918,0.8318482041358948,32.669891357421875,10.763116836547852,1.114585518836975,-1.4263440370559692,0.6338525414466858,0.00889324489980936
13694.0,48.74947738647461,-7.4760637283325195,0.8318281769752502,33.029911041259766,10.764165878295898,1.0723859071731567,-1.2838741540908813,0.6803308129310608,0.0541139580309391
13695.0,48.74945831298828,-6.4741926193237305,0.831811785697937,33.43242263793945,10.966460227966309,1.1436575651168823,-1.1030974388122559,0.7119802832603455,0.03489842638373375
13696.0,48.74945831298828,-5.50761604309082,0.8317975401878357,33.70768737792969,11.06082820892334,1.107710838317871,-0.9736489057540894,0.7200956344604492,0.07677954435348511
6965.0,0.3898567855358124,-4.6756110191345215,1.787400245666504,146.87510681152344,233.43527221679688,5.340969562530518,-6.293440818786621,-1.9756213426589966,47.94668960571289
6966.0,0.38939839601516724,-3.748020648956299,1.9478787183761597,134.39195251464844,216.79103088378906,-5.283641338348389,-7.395888805389404,-1.3810099363327026,18.039159774780273
6967.0,0.3892086148262024,-2.858347177505493,2.0462138652801514,153.15699768066406,184.61541748046875,5.151487827301025,-5.6023335456848145,1.7469054460525513,10.27437686920166
6968.0,0.3891737163066864,-2.0045974254608154,2.106703519821167,142.103515625,173.77976989746094,-5.952518463134766,-2.210700750350952,0.8359327912330627,7.921833515167236
6969.0,0.3891434371471405,-1.1819301843643188,2.1428864002227783,159.34825134277344,158.52195739746094,3.08646559715271,-2.2406575679779053,-3.3286702632904053,-1.869150996208191
6970.0,0.3891526460647583,-0.3892862796783447,2.1590688228607178,153.54185485839844,153.36717224121094,-3.8386387825012207,-2.5626986026763916,-5.161655426025391,4.0828986167907715
6971.0,0.38914820551872253,0.3892922103404999,2.159181833267212,155.53367614746094,153.86997985839844,-1.571635365486145,0.15498797595500946,-4.662256240844727,-4.429164409637451
6972.0,0.38912054896354675,1.1819840669631958,2.143160104751587,157.32862854003906,160.87620544433594,1.7129621505737305,-0.11719904839992523,-3.7328410148620605,2.109265089035034
6973.0,0.38915860652923584,2.004767417907715,2.1070139408111572,140.37103271484375,175.36151123046875,-4.993223190307617,0.7232446670532227,1.6368378400802612,-8.469023704528809
6974.0,0.38927459716796875,2.858553409576416,2.0464372634887695,153.32579040527344,185.65945434570312,4.438612461090088,5.146001815795898,1.4860135316848755,-10.211256980895996
6975.0,0.3896617889404297,3.7483041286468506,1.9480035305023193,131.05845642089844,217.53292846679688,-5.316196441650391,7.060040473937988,-1.6882678270339966,-19.03387451171875
7169.0,1.185768961906433,-4.676677227020264,1.7614023685455322,158.00502014160156,233.30453491210938,9.113971710205078,-18.088836669921875,-10.538273811340332,50.642276763916016
7170.0,1.1839524507522583,-3.749586343765259,1.9264371395111084,145.6205291748047,218.021240234375,-5.49171257019043,-23.87367057800293,-5.9477763175964355,20.655174255371094
7171.0,1.182883858680725,-2.858694314956665,2.0276553630828857,158.56788635253906,183.38551330566406,1.8869173526763916,-15.797584533691406,-4.580413341522217,9.888537406921387
7172.0,1.1824554204940796,-2.004776954650879,2.0892369747161865,156.26116943359375,168.3613739013672,-4.748188495635986,-10.871526718139648,-3.7146379947662354,7.647807598114014
7173.0,1.1820446252822876,-1.1821075677871704,2.126180410385132,162.37754821777344,158.8185577392578,2.6913301944732666,-10.864556312561035,-0.7830156683921814,0.23834267258644104
7174.0,1.1818488836288452,-0.38930124044418335,2.142963409423828,160.04010009765625,156.6478729248047,0.7951023578643799,-2.917056083679199,2.0415170192718506,3.5757081508636475
7175.0,1.1818095445632935,0.389225035905838,2.1431710720062256,159.81275939941406,156.73765563964844,1.7186167240142822,-0.04813980311155319,1.6570765972137451,-3.268454074859619
7176.0,1.1819367408752441,1.1820985078811646,2.1266982555389404,160.45790100097656,161.18580627441406,1.5358433723449707,7.603504657745361,-0.030066492035984993,-0.25222519040107727
7177.0,1.1822985410690308,2.004924774169922,2.0898172855377197,152.6652374267578,169.8246307373047,-4.035120487213135,8.813109397888184,-4.621673583984375,-8.345839500427246
7178.0,1.182814598083496,2.8590219020843506,2.0279576778411865,153.26707458496094,183.74794006347656,1.6139562129974365,15.393380165100098,-5.12258768081665,-9.832184791564941
7179.0,1.1842516660690308,3.7500529289245605,1.9260464906692505,141.77601623535156,215.00955200195312,-5.052574634552002,22.41539192199707,-6.953612804412842,-21.889217376708984
7373.0,2.012681722640991,-4.67700719833374,1.7016336917877197,167.86366271972656,215.97268676757812,9.12911319732666,-26.900819778442383,-22.046344757080078,53.256988525390625
7374.0,2.0104105472564697,-3.753051280975342,1.8763275146484375,166.8907928466797,217.04345703125,-2.2696352005004883,-37.03529357910156,-15.857222557067871,28.845645904541016
7375.0,2.006866216659546,-2.860229730606079,1.9859563112258911,160.72418212890625,185.29881286621094,-0.03171209990978241,-31.133684158325195,-8.3992280960083,9.518664360046387
7376.0,2.005345106124878,-2.005260705947876,2.051114082336426,168.44309997558594,165.18666076660156,1.753977656364441,-20.868301391601562,-8.03786563873291,7.445374011993408
7377.0,2.004838228225708,-1.182519555091858,2.089111566543579,170.27735900878906,151.6129913330078,-4.134912014007568,-11.447251319885254,-7.576915264129639,3.939492702484131
7378.0,2.00459885597229,-0.3894036114215851,2.1067373752593994,176.40577697753906,138.52244567871094,-4.43198823928833,-3.713430881500244,-8.201515197753906,-1.0844467878341675
7379.0,2.0045530796051025,0.38918226957321167,2.1070492267608643,175.84901428222656,137.46299743652344,-4.610170364379883,0.464609831571579,-8.146021842956543,1.2482609748840332
7380.0,2.004678726196289,1.1823865175247192,2.0900189876556396,170.97105407714844,152.7845916748047,-3.3434717655181885,6.727706432342529,-7.786168098449707,-3.3787291049957275
7381.0,2.005042791366577,2.005319833755493,2.052349328994751,164.39361572265625,169.15660095214844,1.5053378343582153,15.580748558044434,-5.639628887176514,-6.896541118621826
7382.0,2.006519079208374,2.860687255859375,1.986858606338501,153.13783264160156,187.555908203125,-0.42251306772232056,29.976194381713867,-7.182124614715576,-11.097319602966309
7383.0,2.01029372215271,3.753816604614258,1.8760414123535156,161.51380920410156,213.75686645507812,0.09794478863477707,36.763668060302734,-15.783415794372559,-29.31281852722168
7577.0,2.8672609329223633,-4.672412872314453,1.6007976531982422,161.1798095703125,183.82005310058594,14.845831871032715,-21.94133186340332,-34.50986862182617,53.226619720458984
7578.0,2.8700804710388184,-3.7572689056396484,1.7854689359664917,179.42527770996094,199.13243103027344,2.621795892715454,-39.54287338256836,-31.033082962036133,39.20851135253906
7579.0,2.8647923469543457,-2.8645401000976562,1.9104020595550537,187.99989318847656,183.657470703125,-1.6171610355377197,-45.67253112792969,-17.75843620300293,17.18653678894043
7580.0,2.860456705093384,-2.006817102432251,1.9854049682617188,185.46324157714844,156.14903259277344,-2.0318126678466797,-32.72797775268555,-9.571094512939453,8.071839332580566
7581.0,2.858856201171875,-1.1830412149429321,2.0271050930023193,184.42796325683594,153.55615234375,2.4442100524902344,-16.61732292175293,-11.297615051269531,3.8708958625793457
7582.0,2.85843825340271,-0.389564573764801,2.046065330505371,185.12803649902344,148.4441375732422,3.941253423690796,-6.866282939910889,-11.365523338317871,0.23557308316230774
7583.0,2.8583908081054688,0.3892180919647217,2.046444892883301,183.39248657226562,148.0363311767578,3.8216612339019775,5.032447814941406,-11.454553604125977,0.11981664597988129
7584.0,2.858731985092163,1.1827211380004883,2.0284547805786133,186.62457275390625,149.42108154296875,1.9705626964569092,13.771932601928711,-11.138779640197754,-2.8357057571411133
7585.0,2.860199213027954,2.006652593612671,1.9875717163085938,187.29501342773438,156.9815673828125,-2.478760004043579,26.935428619384766,-8.895630836486816,-5.7715229988098145
7586.0,2.864351511001587,2.864999771118164,1.912628412246704,184.63050842285156,186.17926025390625,-2.7520580291748047,40.58088302612305,-14.871294021606445,-18.061433792114258
7587.0,2.8695178031921387,3.7583060264587402,1.7866114377975464,176.90928649902344,199.27931213378906,3.663968801498413,37.59737014770508,-28.54820442199707,-40.83497619628906
7588.0,2.8668787479400635,4.673153400421143,1.60056471824646,154.7805633544922,176.93389892578125,15.123808860778809,23.444644927978516,-32.603824615478516,-52.72997283935547
7781.0,3.742706537246704,-4.658351898193359,1.4599499702453613,128.56846618652344,132.70396423339844,16.227630615234375,-9.456542015075684,-37.79826736450195,43.54876708984375
7782.0,3.7563881874084473,-3.7561869621276855,1.6446343660354614,177.31080627441406,175.205810546875,15.211602210998535,-31.54896354675293,-43.28008270263672,45.139530181884766
7783.0,3.7575016021728516,-2.8698062896728516,1.784564733505249,206.03746032714844,183.12701416015625,3.3898634910583496,-41.86811447143555,-39.76174545288086,30.753313064575195
7784.0,3.7533185482025146,-2.01043701171875,1.874837875366211,216.27296447753906,165.01475524902344,-0.9588760733604431,-37.246063232421875,-29.73246955871582,15.051337242126465
7785.0,3.7497847080230713,-1.184310793876648,1.9252060651779175,213.90846252441406,140.37208557128906,-3.9327826499938965,-24.183473587036133,-20.750503540039062,5.858912944793701
7786.0,3.7481417655944824,-0.3898746371269226,1.9474819898605347,215.1649169921875,129.68724060058594,-4.500026226043701,-7.450942516326904,-17.91712188720703,2.814080238342285
7787.0,3.7481629848480225,0.38953518867492676,1.947931170463562,212.69937133789062,129.52403259277344,-5.28099250793457,8.669754981994629,-17.66153907775879,-2.628038167953491
7788.0,3.7498762607574463,1.1839088201522827,1.9267252683639526,215.43113708496094,135.64808654785156,-2.689613103866577,24.917831420898438,-21.89599609375,-6.335147380828857
7789.0,3.753561019897461,2.010061264038086,1.8776133060455322,217.87686157226562,160.134765625,-1.021925449371338,34.63300704956055,-31.11306381225586,-12.063785552978516
7790.0,3.757671356201172,2.87001633644104,1.7881410121917725,206.26976013183594,183.12010192871094,0.47675377130508423,33.492862701416016,-39.498958587646484,-28.469375610351562
7791.0,3.7562499046325684,3.757158041000366,1.6475927829742432,179.1121826171875,176.58071899414062,14.530937194824219,25.58318328857422,-42.027313232421875,-44.74475860595703
7792.0,3.742485284805298,4.659320831298828,1.4612847566604614,126.31989288330078,129.6758575439453,14.534177780151367,9.548908233642578,-36.03097152709961,-45.723018646240234
7985.0,4.635717391967773,-4.635733127593994,1.2907906770706177,91.05262756347656,90.35918426513672,20.338899612426758,32.95572280883789,-31.637025833129883,32.31399154663086
7986.0,4.658227920532227,-3.7424864768981934,1.4594266414642334,136.56358337402344,133.36810302734375,14.098319053649902,-9.744904518127441,-47.16716766357422,41.57505798339844
7987.0,4.672258377075195,-2.8669753074645996,1.5993390083312988,184.99728393554688,164.21095275878906,14.038459777832031,-23.185794830322266,-54.42206573486328,33.843868255615234
7988.0,4.676876068115234,-2.012751579284668,1.699487566947937,210.42550659179688,162.86524963378906,9.07247257232666,-25.699007034301758,-52.743160247802734,20.653562545776367
7989.0,4.67655611038208,-1.1862778663635254,1.7597285509109497,225.03150939941406,151.44056701660156,8.049111366271973,-17.722074508666992,-49.257076263427734,11.378067970275879
7990.0,4.675560474395752,-0.3903665244579315,1.786865234375,234.99490356445312,145.95164489746094,6.266271591186523,-4.9745025634765625,-46.61748504638672,3.5543973445892334
7991.0,4.675695419311523,0.39017435908317566,1.7872354984283447,232.12330627441406,145.9517364501953,4.607398509979248,9.2481050491333,-46.98569107055664,-4.178959369659424
7992.0,4.676994323730469,1.1859984397888184,1.7609928846359253,227.752197265625,149.52459716796875,9.285988807678223,20.363853454589844,-49.245059967041016,-12.114175796508789
7993.0,4.677671909332275,2.0124642848968506,1.7019307613372803,210.36180114746094,159.09727478027344,9.07409381866455,27.981107711791992,-53.44736099243164,-18.308290481567383
7994.0,4.673225402832031,2.8670618534088135,1.6027077436447144,184.69456481933594,167.13990783691406,15.030279159545898,21.13617515563965,-56.409481048583984,-31.785648345947266
7995.0,4.6590399742126465,3.743164539337158,1.4625931978225708,139.39939880371094,137.86705017089844,14.225234985351562,6.8511199951171875,-45.588497161865234,-38.670223236083984
7996.0,4.636110782623291,4.636594295501709,1.2925792932510376,93.23944091796875,90.63330841064453,20.64655876159668,-29.927165985107422,-29.835063934326172,-34.22384262084961
8189.0,5.5515217781066895,-4.61168098449707,1.1090459823608398,-6.132333755493164,17.076879501342773,16.11437225341797,60.47634506225586,-22.713909149169922,12.203970909118652
8190.0,5.5738677978515625,-3.7196078300476074,1.249396800994873,62.83209991455078,89.94123077392578,21.389190673828125,39.17710494995117,-34.51045227050781,27.244922637939453
8191.0,5.594414710998535,-2.851560115814209,1.3718600273132324,113.99534606933594,121.92058563232422,18.115503311157227,5.899562358856201,-49.583900451660156,24.339262008666992
8192.0,5.608401775360107,-2.0056416988372803,1.4662132263183594,146.28172302246094,130.48802185058594,16.28644371032715,-6.6038289070129395,-57.061702728271484,18.8693790435791
8193.0,5.615713119506836,-1.1839065551757812,1.527516484260559,169.65623474121094,132.29762268066406,12.846123695373535,-6.543896198272705,-61.12171173095703,11.575265884399414
8194.0,5.618647575378418,-0.3897872567176819,1.5564440488815308,181.14479064941406,132.4236602783203,11.936453819274902,-1.8991080522537231,-62.152103424072266,3.278097629547119
8195.0,5.618770599365234,0.38981005549430847,1.5566598176956177,182.59324645996094,133.41932678222656,13.164544105529785,4.787765979766846,-62.92037582397461,-4.039498805999756
8196.0,5.616170883178711,1.183838963508606,1.528344988822937,169.37718200683594,131.07789611816406,12.151430130004883,9.3493013381958,-61.68001937866211,-12.708559036254883
8197.0,5.609186172485352,2.0056025981903076,1.4677506685256958,145.01133728027344,130.90284729003906,16.825532913208008,9.756791114807129,-57.550472259521484,-19.229721069335938
8198.0,5.595434188842773,2.851736307144165,1.373909831047058,109.93980407714844,125.27882385253906,18.166170120239258,-1.7448689937591553,-50.29747009277344,-24.575992584228516
8199.0,5.574870586395264,3.7200236320495605,1.2513667345046997,56.157108306884766,97.48268127441406,20.18022346496582,-36.03963088989258,-36.41878890991211,-28.092178344726562
8200.0,5.552109718322754,4.61216402053833,1.1101700067520142,-6.696671485900879,21.802915573120117,13.540816307067871,-59.02501678466797,-25.852170944213867,-16.14264488220215
8393.0,6.500164031982422,-4.593504428863525,0.9440551400184631,-114.45270538330078,-89.15557861328125,-54.89870834350586,38.147674560546875,6.645852088928223,-2.3385257720947266
8394.0,6.515113353729248,-3.6986255645751953,1.041943073272705,-66.08309173583984,-6.21113920211792,-1.6450508832931519,51.46829605102539,-22.147294998168945,6.251076698303223
8395.0,6.531074047088623,-2.8319945335388184,1.1343518495559692,-34.902835845947266,58.473533630371094,16.43689727783203,36.23727798461914,-32.42752456665039,10.089295387268066
8396.0,6.545302867889404,-1.9913500547409058,1.2103744745254517,6.879303932189941,94.48876953125,16.120145797729492,20.300935745239258,-39.172367095947266,18.26201057434082
8397.0,6.5556745529174805,-1.1764822006225586,1.2633857727050781,50.066959381103516,123.68560028076172,21.785554885864258,6.457412242889404,-43.075557708740234,8.481123924255371
8398.0,6.56083345413208,-0.38771483302116394,1.2897511720657349,69.57351684570312,131.08641052246094,22.493711471557617,1.1958917379379272,-45.217552185058594,4.207789897918701
8399.0,6.560891151428223,0.38785845041275024,1.2898588180541992,69.73306274414062,131.69769287109375,21.783205032348633,-0.3213385343551636,-45.28623962402344,-4.026066303253174
8400.0,6.5559000968933105,1.1765646934509277,1.2637602090835571,49.49703598022461,126.44439697265625,22.236818313598633,-4.967381000518799,-42.87442398071289,-9.462043762207031
8401.0,6.545764446258545,1.9914391040802002,1.2110819816589355,4.937995433807373,97.19865417480469,17.31038475036621,-17.389436721801758,-38.60310363769531,-18.926485061645508
8402.0,6.531689167022705,2.832157611846924,1.1352043151855469,-39.626285552978516,61.804405212402344,16.66303253173828,-32.32231140136719,-30.630023956298828,-11.096033096313477
8403.0,6.51568603515625,3.6988770961761475,1.042616844177246,-74.64763641357422,-1.0733286142349243,1.0704516172409058,-49.083560943603516,-19.99724578857422,-7.05479097366333
8404.0,6.500596046447754,4.5937957763671875,0.9443684816360474,-119.75536346435547,-84.35526275634766,-51.677223205566406,-39.075897216796875,7.727871417999268,1.8661051988601685
8597.0,7.487697124481201,-4.5823516845703125,0.8270062804222107,-112.61121368408203,-101.10394287109375,-16.112319946289062,5.123359680175781,20.41571807861328,-11.374814987182617
8598.0,7.495728015899658,-3.6852259635925293,0.87895667552948,-110.40940856933594,-97.28863525390625,-30.040433883666992,14.166147232055664,26.77552604675293,-8.3557767868042
8599.0,7.50425386428833,-2.818227529525757,0.9321213960647583,-133.047607421875,-79.96204376220703,-59.926673889160156,24.062837600708008,9.150506019592285,-12.42533016204834
8600.0,7.512603759765625,-1.9799717664718628,0.9811773300170898,-134.9168701171875,-45.579246520996094,-33.21146774291992,24.413318634033203,-8.695297241210938,7.129913330078125
8601.0,7.519516944885254,-1.1693211793899536,1.0194751024246216,-117.28813934326172,-7.557860851287842,-2.975931406021118,13.946707725524902,-17.51063346862793,3.2097020149230957
8602.0,7.523227691650391,-0.3853151500225067,1.039586067199707,-109.20464324951172,8.362869262695312,-3.8195457458496094,5.050033092498779,-23.364036560058594,2.719393014907837
8603.0,7.5232768058776855,0.3854844868183136,1.0395909547805786,-109.79999542236328,8.13708209991455,-4.571994304656982,-4.297131061553955,-23.57254409790039,-2.659100294113159
8604.0,7.519669055938721,1.1694573163986206,1.0194716453552246,-117.5224609375,-7.2276387214660645,-3.436105728149414,-12.741715431213379,-17.34174919128418,-3.2032530307769775
8605.0,7.512862682342529,1.9800902605056763,0.9811779260635376,-136.08941650390625,-45.21334457397461,-34.99440383911133,-21.995267868041992,-8.551119804382324,-7.789596080780029
8606.0,7.504573345184326,2.818366765975952,0.932124674320221,-133.35508728027344,-78.0131607055664,-59.276920318603516,-20.68231773376465,9.645468711853027,12.297715187072754
8607.0,7.4960527420043945,3.685394763946533,0.8788319230079651,-113.24889373779297,-96.299072265625,-34.28249740600586,-12.773604393005371,27.261993408203125,7.259444713592529
8608.0,7.487995147705078,4.582549571990967,0.8267484307289124,-113.30261993408203,-100.0023193359375,-19.297101974487305,-5.636589527130127,20.640840530395508,11.700554847717285
8801.0,8.516615867614746,-4.576362133026123,0.7573499083518982,-102.85871887207031,-92.62216186523438,4.405937671661377,0.49563097953796387,0.8965650796890259,-0.29213619232177734
8802.0,8.520119667053223,-3.6781063079833984,0.7812829613685608,-103.52239990234375,-93.82769012451172,6.342091083526611,-0.5102444291114807,4.590793132781982,-6.7754902839660645
8803.0,8.524109840393066,-2.8111000061035156,0.8050790429115295,-113.78675079345703,-109.10797882080078,-16.642526626586914,0.9109741449356079,21.145751953125,-6.071258068084717
8804.0,8.528105735778809,-1.9737942218780518,0.8285917639732361,-117.65235900878906,-110.48030090332031,-42.2480583190918,3.54494309425354,32.92399978637695,-3.1036219596862793
8805.0,8.531452178955078,-1.1649609804153442,0.8486294150352478,-115.35259246826172,-90.97029113769531,-42.531803131103516,5.445976734161377,34.626583099365234,0.13374842703342438
8806.0,8.533377647399902,-0.38372910022735596,0.8597521781921387,-115.54637145996094,-78.41584014892578,-42.02388000488281,1.753580927848816,33.82168197631836,-1.2844048738479614
8807.0,8.53342342376709,0.3838648498058319,0.859695315361023,-116.26097106933594,-79.07181549072266,-41.371150970458984,-1.1836119890213013,33.87320327758789,1.5867667198181152
8808.0,8.531563758850098,1.1650861501693726,0.8484411835670471,-117.32917785644531,-92.24083709716797,-41.85849380493164,-4.532186031341553,34.81577682495117,-0.5355842113494873
8809.0,8.528258323669434,1.973903775215149,0.8282946944236755,-119.61186218261719,-111.63758850097656,-40.911991119384766,-2.7929937839508057,32.956050872802734,2.9799611568450928
8810.0,8.52428150177002,2.811210870742798,0.804752767086029,-115.87262725830078,-108.65882873535156,-17.073244094848633,-0.47692182660102844,20.880159378051758,6.450728893280029
8811.0,8.520295143127441,3.6782188415527344,0.7808905243873596,-104.91209411621094,-91.36140441894531,10.002354621887207,1.104800820350647,3.905824661254883,5.972780227661133
8812.0,8.516768455505371,4.576461315155029,0.7568511962890625,-104.29100799560547,-90.76510620117188,6.943970680236816,-0.7612472176551819,0.3848299980163574,0.783260703086853
9005.0,9.588944435119629,-4.574519634246826,0.7172160148620605,-91.32598114013672,-59.79079818725586,-1.6344068050384521,12.470267295837402,11.031940460205078,-2.464334726333618
9006.0,9.589722633361816,-3.6753594875335693,0.7293972969055176,-101.01630401611328,-76.89884185791016,-3.944366693496704,11.516228675842285,9.033397674560547,-0.1703810691833496
9007.0,9.591032981872559,-2.807912826538086,0.7409873604774475,-93.60249328613281,-82.07935333251953,8.130463600158691,8.639630317687988,3.352405309677124,0.5107956528663635
9008.0,9.592673301696777,-1.9708720445632935,0.7513923048973083,-91.00530242919922,-78.000732421875,22.594999313354492,5.9830121994018555,-1.2403326034545898,1.8455047607421875
9009.0,9.594085693359375,-1.1629213094711304,0.7595158219337463,-97.59661865234375,-75.96114349365234,21.75461196899414,4.040065288543701,-3.095214366912842,1.0683702230453491
9010.0,9.594901084899902,-0.3830094635486603,0.7640028595924377,-102.01641082763672,-73.72216033935547,19.794801712036133,2.4595320224761963,-3.226911783218384,1.0437005758285522
9011.0,9.594918251037598,0.3830876648426056,0.7639303803443909,-102.59696960449219,-73.4258804321289,19.78569793701172,-1.3006482124328613,-2.8640592098236084,-1.5508830547332764
9012.0,9.594139099121094,1.1630016565322876,0.7593144774436951,-98.84398651123047,-75.76297760009766,20.624906539916992,-3.545875072479248,-2.748605728149414,-0.9356703758239746
9013.0,9.59274959564209,1.9709547758102417,0.7510831356048584,-91.85771942138672,-77.37438201904297,22.26244354248047,-5.978906631469727,-1.1157931089401245,-1.6368160247802734
9014.0,9.591116905212402,2.807993173599243,0.7405753135681152,-94.8487548828125,-82.53376007080078,8.1001615524292,-8.821478843688965,3.5330848693847656,-0.33581405878067017
9015.0,9.589800834655762,3.6754345893859863,0.728889524936676,-102.11000061035156,-78.46367645263672,-6.529178142547607,-11.914353370666504,9.790393829345703,0.4866468906402588
9016.0,9.589016914367676,4.574592590332031,0.7166114449501038,-91.12925720214844,-60.18606948852539,-3.0069029331207275,-11.712332725524902,11.780742645263672,2.460876703262329
9209.0,10.703377723693848,-4.574140548706055,0.6924034357070923,-65.9557113647461,-51.829673767089844,-0.5291986465454102,13.654685020446777,2.7987635135650635,-1.1838711500167847
9210.0,10.703566551208496,-3.6748201847076416,0.6997695565223694,-71.20117950439453,-42.91632843017578,1.6416208744049072,13.173810958862305,4.710143566131592,-2.251983642578125
9211.0,10.703751564025879,-2.807082176208496,0.7062320709228516,-72.92633819580078,-40.352230072021484,-5.59507417678833,10.584057807922363,8.621268272399902,-2.1222312450408936
9212.0,10.703978538513184,-1.969854474067688,0.7114290595054626,-77.75829315185547,-42.13627243041992,-15.394972801208496,9.997017860412598,12.341279029846191,-1.7250012159347534
9213.0,10.704215049743652,-1.162068247795105,0.7150639891624451,-84.05634307861328,-38.77243423461914,-13.98854923248291,8.404435157775879,14.219512939453125,-0.35101062059402466
9214.0,10.704366683959961,-0.38268664479255676,0.7168980240821838,-88.59241485595703,-36.20454406738281,-12.136770248413086,3.165628433227539,14.255644798278809,-0.4233146011829376
9215.0,10.704377174377441,0.38274186849594116,0.7168355584144592,-88.78750610351562,-36.23268127441406,-12.190207481384277,-2.4841206073760986,14.135725975036621,0.5912029147148132
9216.0,10.704245567321777,1.162124752998352,0.7148728966712952,-84.84701538085938,-38.626529693603516,-13.51898193359375,-7.98478364944458,13.890886306762695,0.11164741218090057
9217.0,10.704018592834473,1.9699151515960693,0.7111106514930725,-78.96611785888672,-41.96047592163086,-15.20047664642334,-9.897467613220215,12.202802658081055,1.4815188646316528
9218.0,10.703803062438965,2.8071465492248535,0.7057933807373047,-74.28223419189453,-40.505401611328125,-5.587558746337891,-10.41495418548584,8.346541404724121,2.097597360610962
9219.0,10.703627586364746,3.6748907566070557,0.6992154717445374,-72.33650970458984,-42.10956954956055,3.391573190689087,-13.276227951049805,4.0591301918029785,2.135525941848755
9220.0,10.70344352722168,4.574212551116943,0.6917340755462646,-66.9283218383789,-51.949344635009766,0.30869153141975403,-13.986586570739746,2.1197187900543213,1.1128519773483276
9413.0,11.858976364135742,-4.573814868927002,0.6749311685562134,-47.67038345336914,-39.933902740478516,0.7565617561340332,2.678279399871826,4.693763732910156,-1.5473248958587646
9414.0,11.859045028686523,-3.6744704246520996,0.6797481179237366,-49.320960998535156,-41.27155685424805,-1.761728048324585,3.9658279418945312,3.5015149116516113,-0.21774455904960632
9415.0,11.859142303466797,-2.8067922592163086,0.6838818788528442,-51.092899322509766,-37.93769454956055,3.137272357940674,5.849889755249023,1.2467213869094849,0.45406726002693176
9416.0,11.859259605407715,-1.9696389436721802,0.6871185898780823,-53.70061492919922,-32.168426513671875,9.810456275939941,6.469214916229248,-1.1692367792129517,0.4717569053173065
9417.0,11.859368324279785,-1.1619281768798828,0.6892929077148438,-57.081302642822266,-30.200000762939453,8.135978698730469,4.645878314971924,-2.317659616470337,-0.3177810609340668
9418.0,11.859436988830566,-0.38263899087905884,0.690342366695404,-58.798858642578125,-29.341217041015625,6.439612865447998,2.0299346446990967,-2.113431692123413,0.10476289689540863
9419.0,11.859444618225098,0.38268840312957764,0.6902779936790466,-59.03485870361328,-29.393098831176758,6.619663238525391,-1.5256251096725464,-1.835744023323059,-0.17186692357063293
9420.0,11.85938835144043,1.161977767944336,0.6890979409217834,-57.48929214477539,-30.26217269897461,7.9412312507629395,-4.429371356964111,-1.8615436553955078,0.3338664174079895
9421.0,11.85928726196289,1.9696913957595825,0.6867897510528564,-53.96175765991211,-31.83078384399414,9.903107643127441,-6.243213653564453,-0.9090328216552734,-0.507509171962738
9422.0,11.859176635742188,2.8068485260009766,0.6834178566932678,-51.663333892822266,-37.76417541503906,3.258183002471924,-5.684782981872559,1.6222264766693115,-0.5025403499603271
9423.0,11.859086036682129,3.6745285987854004,0.6791495680809021,-50.092952728271484,-41.728759765625,-2.816103458404541,-3.7880120277404785,4.236670970916748,0.30810031294822693
9424.0,11.859025955200195,4.573875904083252,0.6742014288902283,-48.31733703613281,-39.967769622802734,0.23511065542697906,-2.3614606857299805,5.313862323760986,1.7307617664337158
9617.0,13.057096481323242,-4.573726654052734,0.6623978614807129,-31.73893928527832,-34.884647369384766,-1.2599962949752808,0.2727491557598114,1.4853770732879639,0.00276183127425611
9618.0,13.057112693786621,-3.6743617057800293,0.6655746102333069,-34.02492141723633,-33.77535629272461,1.1220062971115112,1.181428074836731,2.5861127376556396,-0.6692943572998047
9619.0,13.057143211364746,-2.8066649436950684,0.668255090713501,-36.74770736694336,-34.42543411254883,-2.374396562576294,1.6075403690338135,4.270986557006836,-1.1792410612106323
9620.0,13.057180404663086,-1.9695196151733398,0.6703124642372131,-39.260318756103516,-35.48641586303711,-6.837852954864502,1.8444993495941162,5.920742034912109,-1.141799807548523
9621.0,13.057221412658691,-1.1618484258651733,0.6716770529747009,-41.068973541259766,-33.851131439208984,-5.288816452026367,1.9105511903762817,6.623431205749512,-0.21990284323692322
9622.0,13.057251930236816,-0.38261139392852783,0.6723202466964722,-42.344974517822266,-32.12161636352539,-3.8152544498443604,0.8466373682022095,6.247082233428955,-0.2021649181842804
9623.0,13.057256698608398,0.3826620876789093,0.6722521185874939,-42.51491928100586,-32.36699295043945,-4.040066242218018,-0.35487648844718933,6.105862617492676,0.1902925819158554
9624.0,13.057234764099121,1.1618990898132324,0.6714711785316467,-41.196624755859375,-33.70622634887695,-5.2156901359558105,-1.3827437162399292,6.299059867858887,0.14128510653972626
9625.0,13.05720329284668,1.9695721864700317,0.6699634194374084,-39.55136489868164,-35.47627258300781,-7.066763877868652,-1.5288922786712646,5.583485126495361,0.8916525840759277
9626.0,13.05716609954834,2.806718587875366,0.6677612662315369,-37.07789611816406,-34.50594711303711,-2.3522329330444336,-1.4548617601394653,3.9607696533203125,1.0820165872573853
9627.0,13.057143211364746,3.6744155883789062,0.6649379134178162,-34.5414924621582,-33.6489143371582,1.8307645320892334,-1.003507137298584,2.1527068614959717,0.6390056610107422
9821.0,14.299179077148438,-4.573719501495361,0.6536173224449158,-25.112049102783203,-30.669506072998047,0.9016531705856323,-1.5446432828903198,0.9402851462364197,-0.5154078602790833
9822.0,14.299165725708008,-3.674337148666382,0.6557049751281738,-24.808103561401367,-30.574918746948242,-1.1937133073806763,-0.8049468398094177,0.6726545691490173,0.05272737517952919
9823.0,14.299164772033691,-2.806631326675415,0.6574437618255615,-24.784984588623047,-29.252941131591797,1.1382769346237183,-0.21420918405056,-0.011042640544474125,0.6198277473449707
9824.0,14.29917049407959,-1.9694850444793701,0.6587606072425842,-25.106061935424805,-27.22829818725586,4.486378192901611,0.3268040120601654,-0.8707485795021057,0.7716293931007385
9825.0,14.299178123474121,-1.1618202924728394,0.6596150398254395,-25.929012298583984,-27.227344512939453,2.9848363399505615,0.2815091907978058,-0.9431585073471069,0.2827264070510864
9826.0,14.29918098449707,-0.38260048627853394,0.6600005626678467,-26.137483596801758,-26.891008377075195,1.971028208732605,0.2767203152179718,-0.3838026821613312,0.10991944372653961
9827.0,14.299185752868652,0.38265106081962585,0.6599298119544983,-26.22852897644043,-26.896562576293945,2.1554365158081055,-0.15146063268184662,-0.26320192217826843,-0.06879357248544693
9828.0,14.299185752868652,1.1618714332580566,0.6593990325927734,-26.225521087646484,-27.071260452270508,3.1886651515960693,-0.25312748551368713,-0.6560251712799072,-0.1263335943222046
9829.0,14.29918098449707,1.9695374965667725,0.6583933234214783,-25.600101470947266,-27.31863021850586,4.646568775177002,-0.15638069808483124,-0.492892324924469,-0.5960051417350769
9830.0,14.29918098449707,2.80668306350708,0.6569247841835022,-25.377042770385742,-29.542802810668945,1.1065787076950073,0.16752630472183228,0.3524487316608429,-0.40480348467826843
9831.0,14.299186706542969,3.6743884086608887,0.655036449432373,-25.49177360534668,-31.002702713012695,-1.624186396598816,0.9814023375511169,0.9626851677894592,0.08151053637266159
9832.0,14.29920768737793,4.573771953582764,0.6527987122535706,-25.68568229675293,-30.635257720947266,0.8890999555587769,1.7773606777191162,1.2495908737182617,0.5662907958030701
10025.0,15.586724281311035,-4.573755741119385,0.6479968428611755,-20.3686580657959,-28.281124114990234,-0.7648429274559021,-1.7814044952392578,0.9616174101829529,0.25170090794563293
10026.0,15.586706161499023,-3.6743547916412354,0.6492815017700195,-20.832674026489258,-27.417354583740234,1.0928069353103638,-1.0500845909118652,0.9854559898376465,0.07851289957761765
10027.0,15.586687088012695,-2.806633949279785,0.6503613591194153,-21.347492218017578,-27.538835525512695,-0.6684650778770447,-0.7255567908287048,1.2202807664871216,-0.3143508732318878
10028.0,15.586678504943848,-1.9694777727127075,0.6511730551719666,-21.773155212402344,-28.373157501220703,-3.2998297214508057,-0.2593727111816406,1.7628194093704224,-0.6102452874183655
10029.0,15.586676597595215,-1.1618123054504395,0.6516899466514587,-21.827394485473633,-27.861478805541992,-2.258587598800659,0.012800426222383976,1.887609601020813,-0.23806968331336975
10030.0,15.586676597595215,-0.3825978636741638,0.6519103050231934,-21.945148468017578,-27.306575775146484,-1.4349205493927002,0.01566069759428501,1.42914879322052,-0.08553946018218994
10031.0,15.586678504943848,0.3826459050178528,0.6518385410308838,-22.064044952392578,-27.496784210205078,-1.6399956941604614,0.14775119721889496,1.2837742567062378,0.13482429087162018
10032.0,15.586679458618164,1.1618605852127075,0.6514691710472107,-21.901369094848633,-27.776090621948242,-2.4394474029541016,0.06805752962827682,1.6145323514938354,0.07088887691497803
10033.0,15.586687088012695,1.9695279598236084,0.6507955193519592,-21.932262420654297,-28.35140609741211,-3.411518096923828,0.529041588306427,1.6514407396316528,0.4883393943309784
10034.0,15.586699485778809,2.8066842555999756,0.649827241897583,-21.75621795654297,-27.803348541259766,-0.8516225218772888,0.6969897747039795,1.1051360368728638,0.3034728765487671
10035.0,15.586714744567871,3.674405813217163,0.6485942006111145,-21.13205909729004,-27.275484085083008,1.4090052843093872,1.2265993356704712,0.6054497361183167,-0.06526464968919754
10036.0,15.58674430847168,4.573807239532471,0.6471557021141052,-20.784645080566406,-28.29342269897461,-0.7003757953643799,1.9139841794967651,0.694451093673706,-0.24650171399116516
10229.0,16.92137336730957,-4.57380485534668,0.6453389525413513,-15.714262008666992,-24.898622512817383,0.4394688904285431,-2.166914701461792,0.4877479076385498,-0.32380029559135437
10230.0,16.921340942382812,-3.674386501312256,0.6460079550743103,-16.074853897094727,-25.373613357543945,-1.0628314018249512,-1.6018383502960205,0.5932832360267639,-0.16570927202701569
10231.0,16.92131233215332,-2.8066537380218506,0.6465766429901123,-16.267213821411133,-24.864032745361328,0.4500744044780731,-1.2353506088256836,0.4180438220500946,0.20217658579349518
10232.0,16.921297073364258,-1.969489336013794,0.6470024585723877,-16.553503036499023,-24.109281539916992,2.484260320663452,-0.8331605195999146,0.08524464815855026,0.19504119455814362
10233.0,16.921289443969727,-1.1618167161941528,0.6472626328468323,-17.061418533325195,-24.510963439941406,1.5333523750305176,-0.5245282649993896,0.14740441739559174,0.07836329191923141
10234.0,16.921281814575195,-0.3825981914997101,0.6473554968833923,-17.16558837890625,-24.68548583984375,1.1788614988327026,-0.10971587896347046,0.34217140078544617,0.09053029119968414
10235.0,16.92128562927246,0.3826478123664856,0.6472821831703186,-17.28485107421875,-24.738426208496094,1.2810050249099731,0.20258697867393494,0.3270702660083771,0.027934644371271133
10236.0,16.921289443969727,1.161866307258606,0.6470379829406738,-17.242612838745117,-24.428123474121094,1.7651528120040894,0.5329325795173645,0.14079786837100983,-0.06591957807540894
10237.0,16.921300888061523,1.9695394039154053,0.6466203331947327,-16.94270896911621,-24.133211135864258,2.7655515670776367,0.9376851320266724,0.17219418287277222,-0.16268886625766754
10238.0,16.92131805419922,2.806703567504883,0.6460360884666443,-16.85481834411621,-25.03996467590332,0.42168188095092773,1.2018681764602661,0.49663111567497253,-0.10515017062425613
10239.0,16.921342849731445,3.674438238143921,0.6453104615211487,-16.584320068359375,-25.482572555541992,-1.2384196519851685,1.7121046781539917,0.6358950734138489,0.219936341047287
10240.0,16.9213809967041,4.573856830596924,0.6444839835166931,-16.240510940551758,-24.977354049682617,0.61259526014328,2.2826216220855713,0.5391870141029358,0.38786035776138306
10433.0,18.30482292175293,-4.573863983154297,0.6454240679740906,-12.309630393981934,-22.731691360473633,-0.31076642870903015,-2.318845510482788,0.651940107345581,0.06870131939649582
10434.0,18.304780960083008,-3.6744308471679688,0.6456409096717834,-12.388810157775879,-22.555391311645508,1.0314234495162964,-1.8420008420944214,0.6546764969825745,0.003633387852460146
10435.0,18.30475616455078,-2.8066859245300293,0.645844042301178,-12.46444034576416,-22.855663299560547,-0.26181265711784363,-1.337865948677063,0.7648596167564392,-0.14202718436717987
10436.0,18.30473518371582,-1.9695103168487549,0.6459987163543701,-12.417107582092285,-23.382688522338867,-1.9345424175262451,-0.88936847448349,0.9577354788780212,-0.11804740875959396
10437.0,18.304719924926758,-1.1618279218673706,0.6460832953453064,-12.350229263305664,-23.044578552246094,-1.44371497631073,-0.4393279552459717,0.9518238306045532,-0.07436701655387878
10438.0,18.304716110229492,-0.3826000988483429,0.6460890769958496,-12.31650447845459,-23.02433967590332,-0.8464294075965881,-0.19314998388290405,0.757624626159668,-0.00020045693963766098
10439.0,18.304716110229492,0.38265445828437805,0.6460142135620117,-12.349030494689941,-23.030006408691406,-0.9313963651657104,0.27074769139289856,0.7001680731773376,0.04983494430780411
10440.0,18.304719924926758,1.1618820428848267,0.6458567976951599,-12.57008171081543,-23.206310272216797,-1.6046525239944458,0.4882815480232239,0.8250903487205505,0.06587276607751846
10441.0,18.304731369018555,1.9695652723312378,0.6456170082092285,-12.67802619934082,-23.41993522644043,-2.1636743545532227,1.1033183336257935,0.8297709226608276,0.1844310611486435
10442.0,18.304750442504883,2.8067407608032227,0.645304262638092,-12.859853744506836,-23.19775390625,-0.5520350337028503,1.5034921169281006,0.5644840598106384,0.08942295610904694
10443.0,18.304780960083008,3.674485921859741,0.6449431777000427,-12.626250267028809,-22.45826530456543,1.2079429626464844,1.9881459474563599,0.4702729880809784,-0.09309149533510208
10444.0,18.304819107055664,4.57391881942749,0.6445689797401428,-12.71946907043457,-22.968772888183594,-0.4206719696521759,2.5265042781829834,0.5997843742370605,-0.12606710195541382
10637.0,19.73884391784668,-4.5739312171936035,0.6480874419212341,-8.54436206817627,-20.155790328979492,0.18359361588954926,-2.517346143722534,0.3618175983428955,-0.23200690746307373
10638.0,19.738801956176758,-3.6744823455810547,0.64797043800354,-8.890042304992676,-20.72218132019043,-0.840692400932312,-2.0379600524902344,0.4611470401287079,-0.15461470186710358
10639.0,19.738771438598633,-2.8067221641540527,0.6478992104530334,-9.152085304260254,-20.50181770324707,0.14701010286808014,-1.40233314037323,0.39089488983154297,-0.01966814137995243
10640.0,19.738754272460938,-1.9695322513580322,0.6478488445281982,-9.289183616638184,-19.968442916870117,1.637050747871399,-1.0046626329421997,0.1759805977344513,0.3091263473033905
10641.0,19.738739013671875,-1.161838412284851,0.6477990746498108,-9.658546447753906,-20.604339599609375,1.0815688371658325,-0.5868726372718811,0.1837247610092163,0.0025433243717998266
10642.0,19.738731384277344,-0.3826006054878235,0.6477398872375488,-9.677674293518066,-20.544111251831055,0.8148449659347534,-0.11273349076509476,0.3576849699020386,-0.003929516300559044
10643.0,19.73872947692871,0.38266515731811523,0.6476660370826721,-9.789643287658691,-20.67549705505371,0.7055604457855225,0.25763222575187683,0.35306671261787415,0.02739587612450123
10644.0,19.738733291625977,1.1619032621383667,0.6475763916969299,-9.548270225524902,-20.415128707885742,1.2179588079452515,0.6767643690109253,0.20390067994594574,0.04004907235503197
10645.0,19.738744735717773,1.9695971012115479,0.6474752426147461,-9.282054901123047,-19.968332290649414,1.83716881275177,1.1517032384872437,0.22945143282413483,-0.10219729691743851
10646.0,19.7387638092041,2.8067855834960938,0.6473707556724548,-9.278765678405762,-20.634490966796875,0.41873452067375183,1.5059845447540283,0.4809706509113312,-0.0049247886054217815
10647.0,19.738794326782227,3.674543857574463,0.6472845673561096,-9.162898063659668,-20.942787170410156,-0.8748369812965393,2.1105363368988037,0.6333408951759338,0.14561499655246735
10648.0,19.73883628845215,4.573991775512695,0.6472456455230713,-8.939160346984863,-20.366426467895508,0.08392007648944855,2.718867778778076,0.5289368033409119,0.17050325870513916
10841.0,21.22527503967285,-4.574003219604492,0.653137743473053,-5.970654487609863,-18.095048904418945,0.012509116902947426,-2.5259287357330322,0.5031076073646545,0.06314105540513992
10842.0,21.225234985351562,-3.6745378971099854,0.6527871489524841,-5.891538619995117,-17.9667911529541,0.7313757538795471,-2.0920393466949463,0.40580490231513977,0.03906645253300667
10843.0,21.225204467773438,-2.806762456893921,0.6525291800498962,-5.882375717163086,-18.308027267456055,-0.09028726816177368,-1.614623785018921,0.3950822949409485,-0.13264697790145874
10844.0,21.225181579589844,-1.9695597887039185,0.6523392796516418,-5.9710283279418945,-18.899324417114258,-1.4322937726974487,-1.0933724641799927,0.6439915299415588,-0.045539580285549164
10845.0,21.22516632080078,-1.1618527173995972,0.6522002220153809,-5.788347244262695,-18.71153450012207,-0.9165195226669312,-0.6647169589996338,0.7231314182281494,-0.02514168620109558
10846.0,21.22515869140625,-0.38260194659233093,0.6520989537239075,-5.841366291046143,-18.701501846313477,-0.5164351463317871,-0.304513543844223,0.5058367252349854,-0.03528473898768425
10847.0,21.225156784057617,0.3826754093170166,0.6520271897315979,-5.920047760009766,-18.75977897644043,-0.5953915119171143,0.24017855525016785,0.47419145703315735,0.13483701646327972
10848.0,21.225160598754883,1.1619254350662231,0.6519837975502014,-5.9430952072143555,-18.86680793762207,-0.976305365562439,0.6134104132652283,0.659357488155365,0.03692756965756416
10849.0,21.22517204284668,1.9696310758590698,0.6519753932952881,-6.22263765335083,-19.22465705871582,-1.6236860752105713,1.0218366384506226,0.593267023563385,0.09928189963102341
10850.0,21.225191116333008,2.806832790374756,0.6520137786865234,-6.108682632446289,-18.504182815551758,-0.215840682387352,1.6142089366912842,0.36991405487060547,0.09220599383115768
10851.0,21.225221633911133,3.6746060848236084,0.6521172523498535,-6.216828346252441,-18.363481521606445,0.6637488007545471,2.110597848892212,0.3942260444164276,-0.09173261374235153
10852.0,21.225265502929688,4.574069499969482,0.6523151993751526,-6.260136604309082,-18.338289260864258,-0.10289859026670456,2.6612799167633057,0.5288065075874329,-0.07782059907913208
11045.0,22.766029357910156,-4.57407808303833,0.6604058742523193,-2.96993088722229,-15.86894416809082,-0.03712107241153717,-2.5960538387298584,0.2948721945285797,-0.06671690940856934
11046.0,22.765989303588867,-3.6745967864990234,0.6598964333534241,-3.243501901626587,-16.356977462768555,-0.8138107061386108,-2.0734035968780518,0.35179316997528076,-0.08724364638328552
11047.0,22.765958786010742,-2.8068060874938965,0.6595091819763184,-3.129495859146118,-16.100778579711914,0.23743939399719238,-1.588250994682312,0.3298545777797699,0.04016880318522453
11048.0,22.765933990478516,-1.969589352607727,0.6592216491699219,-3.4449217319488525,-16.253610610961914,0.8846574425697327,-1.0484347343444824,0.248116597533226,0.007625889498740435
11049.0,22.765918731689453,-1.1618690490722656,0.6590186953544617,-3.443909168243408,-16.147262573242188,0.7459015250205994,-0.7138084769248962,0.18410955369472504,0.04285994917154312
11050.0,22.765913009643555,-0.3826043903827667,0.6588882803916931,-3.45029878616333,-16.38248634338379,0.4022098183631897,-0.20639488101005554,0.2004823386669159,-0.03201587498188019
11051.0,22.765913009643555,0.38268569111824036,0.658820390701294,-3.507045269012451,-16.54815673828125,0.42604202032089233,0.2047671377658844,0.2974371612071991,-0.05088987946510315
11052.0,22.765914916992188,1.1619482040405273,0.6588119864463806,-3.5068819522857666,-16.326400756835938,0.9085475206375122,0.7052754163742065,0.3143216371536255,-0.13214696943759918
11053.0,22.765926361083984,1.9696674346923828,0.6588707566261292,-3.510984420776367,-16.202314376831055,1.0876673460006714,1.0823231935501099,0.28316232562065125,0.010296010412275791
11054.0,22.76594352722168,2.806882858276367,0.6590125560760498,-3.4119277000427246,-16.359800338745117,0.2152312994003296,1.6378586292266846,0.3622336685657501,0.004531338345259428
11055.0,22.765974044799805,3.6746714115142822,0.6592531204223633,-3.434386968612671,-16.642454147338867,-0.7157263159751892,2.175273895263672,0.4181084930896759,-0.006656017620116472
11056.0,22.766010284423828,4.574150085449219,0.6596155166625977,-3.209899663925171,-16.13385009765625,0.1259831041097641,2.6931567192077637,0.39146244525909424,0.12048541754484177
11249.0,24.363080978393555,-4.574153900146484,0.6696996092796326,-0.6148459315299988,-13.762885093688965,0.13117273151874542,-2.5623362064361572,0.45452407002449036,0.003502911189571023
11250.0,24.363039016723633,-3.6746561527252197,0.669094443321228,-0.6269193291664124,-13.80817985534668,0.5939602255821228,-2.0517213344573975,0.37787291407585144,-0.07674282044172287
11251.0,24.363008499145508,-2.8068501949310303,0.668630063533783,-0.6553547978401184,-14.189896583557129,0.014093109406530857,-1.6145117282867432,0.47014567255973816,-0.07574284821748734
11252.0,24.36298942565918,-1.9696190357208252,0.6682865619659424,-0.679193377494812,-14.630461692810059,-0.7990025877952576,-1.0896111726760864,0.5621846318244934,-0.1463557630777359
11253.0,24.362974166870117,-1.161885142326355,0.6680478453636169,-0.6694396734237671,-14.614667892456055,-0.610687792301178,-0.6864420175552368,0.4939408600330353,-0.06596210598945618
11254.0,24.36296272277832,-0.38260769844055176,0.6679012775421143,-0.7013376951217651,-14.528786659240723,-0.3180868923664093,-0.27110543847084045,0.4939262568950653,-0.10736136883497238
11255.0,24.36296272277832,0.3826954662799835,0.667837381362915,-0.7739201784133911,-14.747641563415527,-0.3883199393749237,0.1291123777627945,0.5047350525856018,-0.13112355768680573
11256.0,24.362964630126953,1.1619716882705688,0.6678528189659119,-0.6104887127876282,-14.615357398986816,-0.5883879065513611,0.5941571593284607,0.505881130695343,-0.07801937311887741
11257.0,24.36297607421875,1.96970534324646,0.6679544448852539,-0.6681829690933228,-14.779340744018555,-0.9583340883255005,1.0189357995986938,0.5283810496330261,0.08763258904218674
11258.0,24.362993240356445,2.806934356689453,0.6681599617004395,-0.6308942437171936,-14.450529098510742,-0.11884159594774246,1.5570616722106934,0.3711712956428528,-0.0148951206356287
11259.0,24.363021850585938,3.674736499786377,0.6684855818748474,-0.730469822883606,-14.169929504394531,0.5000365376472473,2.0325777530670166,0.2185899019241333,-0.1369314044713974
11453.0,26.01848030090332,-4.574228286743164,0.6808284521102905,2.0369365215301514,-11.719535827636719,-0.0308675579726696,-2.4873220920562744,0.3135945796966553,-0.10506194084882736
11454.0,26.01844596862793,-3.674715280532837,0.6801748871803284,1.846114158630371,-12.268320083618164,-0.618168294429779,-2.0291154384613037,0.30731794238090515,-0.11178849637508392
11455.0,26.018415451049805,-2.806894540786743,0.6796702742576599,1.8151417970657349,-12.258577346801758,-0.0978308841586113,-1.5312844514846802,0.31207454204559326,0.0250120609998703
11456.0,26.01839828491211,-1.9696494340896606,0.6792973279953003,1.844387173652649,-12.049161911010742,0.6557841897010803,-1.0830563306808472,0.22046910226345062,-0.039091628044843674
11457.0,26.018375396728516,-1.1619011163711548,0.6790410280227661,1.7285020351409912,-12.351984024047852,0.3878745436668396,-0.7040382027626038,0.10707290470600128,-0.03836939111351967
11458.0,26.01837158203125,-0.382611483335495,0.6788879632949829,1.75809645652771,-12.505303382873535,0.15893380343914032,-0.21140167117118835,0.19231151044368744,-0.06175399571657181
11459.0,26.018369674682617,0.38270479440689087,0.6788272857666016,1.7855947017669678,-12.386632919311523,0.26008281111717224,0.15389752388000488,0.21388781070709229,-0.14300955832004547
11460.0,26.018373489379883,1.1619949340820312,0.6788583397865295,1.761216163635254,-12.249053001403809,0.6028071045875549,0.665371835231781,0.15679429471492767,0.02335633523762226
11461.0,26.01838493347168,1.969741702079773,0.6789893507957458,1.7315704822540283,-12.318792343139648,0.8082541823387146,1.0744986534118652,0.33115747570991516,0.08260195702314377
11462.0,26.018400192260742,2.8069841861724854,0.6792334914207458,1.7063924074172974,-12.461101531982422,0.01940680854022503,1.5206382274627686,0.47842690348625183,0.012432580813765526
11463.0,26.018428802490234,3.674802303314209,0.6796078085899353,1.7085436582565308,-12.531075477600098,-0.5490723252296448,1.998108148574829,0.46077248454093933,0.07504551857709885
11464.0,26.018461227416992,4.574310779571533,0.6801310181617737,1.8414881229400635,-12.158280372619629,0.061425235122442245,2.512799024581909,0.3943541347980499,0.037154704332351685
11657.0,27.734371185302734,-4.574300765991211,0.6935777068138123,4.2481303215026855,-9.717228889465332,0.24236871302127838,-2.367414712905884,0.40237095952033997,-0.022044779732823372
11658.0,27.734331130981445,-3.6747725009918213,0.6929163932800293,4.186812877655029,-9.99007511138916,0.472157746553421,-1.9047527313232422,0.414349764585495,-0.0814889594912529
11659.0,27.734310150146484,-2.8069376945495605,0.6924051642417908,4.297327518463135,-10.190415382385254,0.14848534762859344,-1.440693974494934,0.40567919611930847,-0.03128345310688019
11660.0,27.734283447265625,-1.9696780443191528,0.6920273303985596,4.31907320022583,-10.4563627243042,-0.4060497581958771,-1.0235387086868286,0.45903757214546204,-0.08844912052154541
11661.0,27.734270095825195,-1.161915898323059,0.6917697191238403,4.359027862548828,-10.484374046325684,-0.28877440094947815,-0.5671694278717041,0.5397776961326599,-0.02967299520969391
11662.0,27.73426628112793,-0.3826129734516144,0.6916189789772034,4.356565952301025,-10.54327392578125,0.03994390740990639,-0.2285212278366089,0.4823417365550995,0.006573188584297895
11663.0,27.734264373779297,0.3827161490917206,0.6915627717971802,4.359500408172607,-10.471699714660645,-0.05599072948098183,0.15453149378299713,0.4702363610267639,-0.0939142182469368
11664.0,27.734264373779297,1.1620193719863892,0.6916018128395081,4.294902324676514,-10.609906196594238,-0.4215376675128937,0.5592892169952393,0.47534626722335815,0.01089637540280819
11665.0,27.734270095825195,1.9697797298431396,0.6917463541030884,4.209927082061768,-10.74008560180664,-0.4243958592414856,1.0106191635131836,0.39627712965011597,0.042445335537195206
11666.0,27.73428726196289,2.807037115097046,0.6920061707496643,4.13185453414917,-10.478874206542969,0.02542242221534252,1.5109257698059082,0.3336975574493408,0.035096313804388046
11667.0,27.734315872192383,3.6748692989349365,0.6923970580101013,4.180465221405029,-10.175707817077637,0.5416373610496521,1.9529563188552856,0.33089718222618103,0.020998515188694
11668.0,27.734346389770508,4.574392795562744,0.6929382085800171,4.0377068519592285,-10.381645202636719,0.15154589712619781,2.387094736099243,0.3805161118507385,-0.08212203532457352
11861.0,29.51295280456543,-4.574373722076416,0.7077183127403259,6.44374418258667,-8.105055809020996,-0.30220648646354675,-2.3533132076263428,0.2543141543865204,-0.028341038152575493
11862.0,29.512920379638672,-3.674830913543701,0.7070798277854919,6.512829303741455,-8.275031089782715,-0.47719478607177734,-1.9087343215942383,0.28075966238975525,-0.06941873580217361
11863.0,29.51289176940918,-2.8069803714752197,0.7065843939781189,6.390884876251221,-8.503165245056152,-0.26531514525413513,-1.419510006904602,0.18941566348075867,-0.004248798359185457
11864.0,29.512874603271484,-1.969706654548645,0.7062187194824219,6.4725446701049805,-8.329017639160156,0.2421722710132599,-1.0275717973709106,0.14693967998027802,0.10152588784694672
11865.0,29.512861251831055,-1.1619313955307007,0.705970048904419,6.326816082000732,-8.651191711425781,0.012885062023997307,-0.6325147747993469,0.2496965229511261,0.05694234371185303
11866.0,29.512849807739258,-0.3826156258583069,0.7058263421058655,6.244899749755859,-8.846352577209473,-0.19620822370052338,-0.30442550778388977,0.1941053718328476,0.007299371063709259
11867.0,29.512845993041992,0.3827264606952667,0.7057764530181885,6.398305892944336,-8.595733642578125,-0.02144542522728443,0.16467146575450897,0.17914094030857086,-0.08590282499790192
11868.0,29.512849807739258,1.162042498588562,0.7058196663856506,6.277517318725586,-8.711907386779785,0.034069787710905075,0.49621957540512085,0.2346470206975937,-0.013120004907250404
11869.0,29.512861251831055,1.9698164463043213,0.7059667110443115,6.397866249084473,-8.523531913757324,0.3544517755508423,0.9588795304298401,0.1801166832447052,-0.046828147023916245
11870.0,29.512874603271484,2.8070878982543945,0.7062272429466248,6.338103294372559,-8.69702434539795,-0.17804859578609467,1.3704625368118286,0.2857818305492401,0.0016213448252528906
11871.0,29.512895584106445,3.6749346256256104,0.7066138982772827,6.2588887214660645,-8.670865058898926,-0.5530481934547424,1.8325004577636719,0.34098273515701294,-0.026547906920313835
11872.0,29.51292610168457,4.574473857879639,0.7071443200111389,6.151271343231201,-8.581428527832031,-0.21602477133274078,2.275668144226074,0.22357690334320068,0.03626938536763191
12065.0,31.35651969909668,-4.574450969696045,0.7229915857315063,8.560352325439453,-6.108646392822266,0.2958691418170929,-2.2398462295532227,0.5432630181312561,-0.02410574071109295
12066.0,31.356487274169922,-3.6748921871185303,0.7224012017250061,8.785811424255371,-5.994324207305908,0.6497176289558411,-1.8335009813308716,0.4976930320262909,0.039179082959890366
12067.0,31.356460571289062,-2.8070273399353027,0.7219431400299072,8.830416679382324,-6.281829833984375,0.3083632290363312,-1.4178473949432373,0.5035294890403748,-0.02341340482234955
12068.0,31.356443405151367,-1.9697387218475342,0.7216061949729919,8.915511131286621,-6.393429279327393,0.005964818876236677,-1.0103281736373901,0.5933662056922913,0.022600652649998665
12069.0,31.356430053710938,-1.1619492769241333,0.721377432346344,8.859539031982422,-6.612542152404785,0.07837975770235062,-0.653294026851654,0.5792099833488464,0.047112371772527695
12070.0,31.356426239013672,-0.3826199173927307,0.7212456464767456,8.856220245361328,-6.620663642883301,0.15804368257522583,-0.27002227306365967,0.5697939395904541,0.08562075346708298
12071.0,31.356416702270508,0.3827354609966278,0.7212026119232178,8.898043632507324,-6.5365824699401855,0.23916102945804596,0.1195908635854721,0.5751212239265442,-0.01912905089557171
12072.0,31.35641860961914,1.1620651483535767,0.7212467789649963,8.852240562438965,-6.63546085357666,-0.030109109356999397,0.4842228591442108,0.5440719127655029,-0.0016930215060710907
12073.0,31.356430053710938,1.9698532819747925,0.7213865518569946,8.788434028625488,-6.752295970916748,-0.23398683965206146,0.9259005188941956,0.519223153591156,0.06252824515104294
12074.0,31.3564453125,2.807138681411743,0.7216328382492065,8.784716606140137,-6.592566967010498,0.1873215138912201,1.3806452751159668,0.5260902047157288,0.07200735807418823
12075.0,31.35647201538086,3.6750009059906006,0.7219962477684021,8.869950294494629,-6.257991313934326,0.6323512196540833,1.7262485027313232,0.53413987159729,-0.07368610054254532
12269.0,33.267452239990234,-4.574530124664307,0.7390895485877991,10.814871788024902,-4.453114986419678,-0.5054078102111816,-2.1487085819244385,0.206058531999588,-0.0819694995880127
12270.0,33.26742172241211,-3.674956798553467,0.7385650873184204,10.887991905212402,-4.563072204589844,-0.6961893439292908,-1.747641682624817,0.15818221867084503,0.05865371972322464
12271.0,33.267398834228516,-2.8070764541625977,0.7381582260131836,10.88768196105957,-4.698363780975342,-0.4489828944206238,-1.336905598640442,0.19367827475070953,0.02217743918299675
12272.0,33.26737594604492,-1.9697740077972412,0.7378585338592529,10.961541175842285,-4.547134876251221,-0.10070163756608963,-1.0177398920059204,0.174965038895607,0.02610349841415882
12273.0,33.26736831665039,-1.1619700193405151,0.7376556992530823,11.015839576721191,-4.7048115730285645,-0.10677003115415573,-0.6402690410614014,0.08431358635425568,0.03676130250096321
12274.0,33.26736068725586,-0.3826265037059784,0.7375396490097046,11.048576354980469,-4.800304412841797,-0.3005323112010956,-0.29345640540122986,0.15831951797008514,0.06646821647882462
12275.0,33.26736068725586,0.38274237513542175,0.7375034093856812,11.073923110961914,-4.820698261260986,-0.32419803738594055,0.058725353330373764,0.2128795087337494,-0.0038024543318897486
12276.0,33.26736068725586,1.1620856523513794,0.7375455498695374,11.202356338500977,-4.632684707641602,-0.07393258064985275,0.49713757634162903,0.2514086663722992,-0.05010063201189041
12277.0,33.26736831665039,1.96988844871521,0.7376733422279358,11.184386253356934,-4.639059543609619,0.10586835443973541,0.7713847756385803,0.3118462860584259,0.08437579870223999
12278.0,33.26737976074219,2.8071889877319336,0.7378957271575928,11.023609161376953,-4.759981155395508,-0.2527369558811188,1.208530068397522,0.24209143221378326,0.10504870861768723
12279.0,33.267398834228516,3.675065755844116,0.7382227182388306,10.868896484375,-4.838857650756836,-0.6388149857521057,1.5886975526809692,0.20011283457279205,0.09928727149963379
12280.0,33.26742935180664,4.574635028839111,0.738667368888855,10.809165000915527,-4.785398960113525,-0.4486761689186096,2.069232940673828,0.2565467059612274,0.09258944541215897
12473.0,35.24821090698242,-4.574613571166992,0.7556568384170532,13.373069763183594,-2.2311480045318604,0.45952844619750977,-2.067518949508667,0.5703118443489075,-0.0683583989739418
12474.0,35.2481803894043,-3.675025463104248,0.7552123069763184,13.66340446472168,-1.9195520877838135,0.8920383453369141,-1.7122802734375,0.5632498860359192,-0.011437512002885342
12475.0,35.248165130615234,-2.8071305751800537,0.7548674941062927,13.591338157653809,-2.320604085922241,0.4799923598766327,-1.3390218019485474,0.6743084192276001,0.016179846599698067
12476.0,35.24814987182617,-1.969813585281372,0.754612922668457,13.607720375061035,-2.5113699436187744,0.11382211744785309,-1.031734585762024,0.6271070837974548,-0.0030234502628445625
12477.0,35.24813461303711,-1.1619962453842163,0.7544413805007935,13.67075252532959,-2.448744773864746,0.266863077878952,-0.6646462082862854,0.5826180577278137,0.020249931141734123
12478.0,35.24813461303711,-0.3826389014720917,0.75434410572052,13.594794273376465,-2.5674285888671875,0.3555968105792999,-0.37029626965522766,0.6104791760444641,0.03400707617402077
12479.0,35.24812698364258,0.38274314999580383,0.7543144822120667,13.587584495544434,-2.569326639175415,0.34439510107040405,-0.028226716443896294,0.6240102648735046,0.08512454479932785
12480.0,35.24813461303711,1.1621001958847046,0.7543519735336304,13.492156028747559,-2.5959928035736084,0.11820321530103683,0.31352874636650085,0.6763243079185486,-0.02224021404981613
12481.0,35.24813461303711,1.969916582107544,0.7544618844985962,13.427955627441406,-2.715304374694824,0.09263927489519119,0.603712260723114,0.636132538318634,0.05594751983880997
12482.0,35.24814987182617,2.807231903076172,0.7546516060829163,13.50787353515625,-2.50763201713562,0.36653777956962585,1.0350972414016724,0.5497693419456482,0.07224670797586441
12483.0,35.2481689453125,3.675123453140259,0.7549305558204651,13.593873977661133,-2.3237054347991943,0.640070378780365,1.4124315977096558,0.508831799030304,0.09502553194761276
12484.0,35.24819564819336,4.574709415435791,0.7553102970123291,13.531099319458008,-2.348764419555664,0.5582835078239441,1.7828004360198975,0.5495996475219727,0.038403842598199844
12677.0,37.301361083984375,-4.574699401855469,0.7722538709640503,15.753679275512695,-0.6707515120506287,-0.6785376071929932,-1.943861722946167,0.16584907472133636,0.0020343372598290443
12678.0,37.301334381103516,-3.6750965118408203,0.7718968987464905,15.867827415466309,-0.6969509720802307,-0.7794404029846191,-1.5922564268112183,0.22168323397636414,-0.0356256403028965
12679.0,37.30131912231445,-2.807187795639038,0.7716198563575745,15.948820114135742,-0.663914144039154,-0.5268242955207825,-1.2399945259094238,0.2965129613876343,0.03790349140763283
12680.0,37.30130386352539,-1.9698565006256104,0.7714148163795471,15.981500625610352,-0.7267388701438904,-0.34849900007247925,-0.9277887344360352,0.2707143723964691,-0.03491399064660072
12681.0,37.30129623413086,-1.1620253324508667,0.7712768316268921,16.192779541015625,-0.5177945494651794,-0.256099671125412,-0.6352077126502991,0.19929470121860504,0.016783036291599274
12682.0,37.30129623413086,-0.38265424966812134,0.7711986899375916,16.088706970214844,-0.9013047218322754,-0.4923859238624573,-0.3151750862598419,0.18410015106201172,-0.048552993685007095
12683.0,37.30128860473633,0.3827410936355591,0.771174967288971,16.219209671020508,-0.6551738381385803,-0.3895573914051056,-0.010119958780705929,0.24602201581001282,0.07539564371109009
12684.0,37.30129623413086,1.1621118783950806,0.771206259727478,16.194124221801758,-0.7081024646759033,-0.3056735694408417,0.3298836946487427,0.2137533277273178,-0.05543377995491028
12685.0,37.30129623413086,1.9699428081512451,0.7712951302528381,16.29728126525879,-0.5289332866668701,-0.10944825410842896,0.6301186680793762,0.10842233896255493,-0.09308183938264847
12686.0,37.30131149291992,2.807272434234619,0.77144855260849,16.089860916137695,-0.7970218062400818,-0.49823397397994995,1.0069879293441772,0.141787588596344,0.012887120246887207
12687.0,37.301326751708984,3.6751787662506104,0.7716737985610962,15.924837112426758,-0.8660277128219604,-0.7220205664634705,1.360884428024292,0.24181054532527924,0.025311993435025215
12688.0,37.30134582519531,4.574779510498047,0.7719797492027283,15.825170516967773,-0.773032546043396,-0.6114744544029236,1.6812182664871216,0.25225040316581726,-0.022099826484918594
12881.0,39.4295539855957,-4.574782848358154,0.7883564233779907,18.896757125854492,2.093904495239258,0.7733158469200134,-1.7002838850021362,0.7069078683853149,0.03723199665546417
12882.0,39.429534912109375,-3.6751654148101807,0.788090169429779,18.934585571289062,1.8925988674163818,0.8474403619766235,-1.3963141441345215,0.7339535355567932,0.005457386840134859
12883.0,39.42951965332031,-2.8072431087493896,0.7878832817077637,18.9959716796875,1.8190679550170898,0.7173488140106201,-1.1231225728988647,0.6356983780860901,-0.06272352486848831
12884.0,39.429508209228516,-1.9698983430862427,0.7877302169799805,18.918352127075195,1.6597756147384644,0.36812716722488403,-0.7973946332931519,0.6060675978660583,-0.15220646560192108
12885.0,39.429500579833984,-1.1620529890060425,0.7876268029212952,19.08854866027832,1.8948516845703125,0.5768166184425354,-0.532482385635376,0.5746505856513977,-0.05048317089676857
12886.0,39.42949295043945,-0.38266825675964355,0.7875683307647705,18.98722267150879,1.6690672636032104,0.533835232257843,-0.26856473088264465,0.567903459072113,-0.056693144142627716
12887.0,39.42948913574219,0.38274091482162476,0.7875509858131409,19.07835578918457,1.7956990003585815,0.5443022847175598,0.05225560441613197,0.6664538383483887,0.09725859761238098
12888.0,39.429500579833984,1.162124752998352,0.7875743508338928,19.001554489135742,1.5612295866012573,0.34700167179107666,0.28807663917541504,0.6957354545593262,0.061719413846731186
12889.0,39.429500579833984,1.9699689149856567,0.7876405119895935,19.023008346557617,1.6899031400680542,0.3393285274505615,0.55455082654953,0.6593983769416809,-0.021176574751734734
12890.0,39.429508209228516,2.8073134422302246,0.7877550721168518,19.0202579498291,1.7060716152191162,0.6362475752830505,0.868194043636322,0.63576340675354,0.0448896624147892
12891.0,39.42952346801758,3.6752336025238037,0.7879233956336975,18.962060928344727,1.7018145322799683,0.7923813462257385,1.1864005327224731,0.6810651421546936,-0.03427816927433014
12892.0,39.42954635620117,4.574848651885986,0.7881518006324768,18.899568557739258,1.7670037746429443,0.6233434677124023,1.491324543952942,0.6896782517433167,-0.09032214432954788
13085.0,41.635555267333984,-4.5748677253723145,0.8032909631729126,21.77786636352539,3.5625193119049072,-0.7334268093109131,-1.6484224796295166,0.15799202024936676,0.0007114186882972717
13086.0,41.63553237915039,-3.6752355098724365,0.8031119704246521,21.815065383911133,3.363279104232788,-0.9175338745117188,-1.3531112670898438,0.17353378236293793,0.035388167947530746
13087.0,41.63552474975586,-2.807300329208374,0.8029729127883911,21.999835968017578,3.3940165042877197,-0.6951684355735779,-1.107932686805725,0.14109587669372559,-0.035589754581451416
13088.0,41.63551330566406,-1.969942331314087,0.8028696775436401,22.11741828918457,3.492767095565796,-0.6259804368019104,-0.8150550127029419,0.13080018758773804,-0.01777934841811657
13089.0,41.6355094909668,-1.1620844602584839,0.8027991652488708,22.210128784179688,3.5359208583831787,-0.6493025422096252,-0.5634904503822327,0.1756729930639267,-0.06834360212087631
13090.0,41.635501861572266,-0.3826867938041687,0.8027596473693848,22.3572998046875,3.676210403442383,-0.5836496353149414,-0.37503159046173096,0.1774408221244812,-0.064442940056324
13091.0,41.635501861572266,0.3827348053455353,0.8027486205101013,22.288406372070312,3.4610819816589355,-0.5942902565002441,-0.05167926102876663,0.17789258062839508,0.03723755478858948
13092.0,41.635501861572266,1.1621308326721191,0.802764356136322,22.312028884887695,3.5694503784179688,-0.3983270823955536,0.08576157689094543,0.2003597915172577,0.053033165633678436
13093.0,41.6355094909668,1.9699877500534058,0.8028087615966797,22.174715042114258,3.4691200256347656,-0.5247893929481506,0.3702908754348755,0.19996048510074615,-0.060436610132455826
13094.0,41.63552474975586,2.8073461055755615,0.8028855323791504,22.133392333984375,3.5291478633880615,-0.674372136592865,0.6267275810241699,0.17062141001224518,-0.03164639696478844
13095.0,41.63553237915039,3.675281047821045,0.8029985427856445,21.892393112182617,3.184715509414673,-0.8738870620727539,0.9584545493125916,0.1265438050031662,0.020033249631524086
13096.0,41.635555267333984,4.574909210205078,0.8031525015830994,21.88699722290039,3.404440402984619,-0.6473540663719177,1.2547789812088013,0.15545852482318878,-0.05397066846489906
13289.0,43.922210693359375,-4.574949264526367,0.8162522315979004,25.32363510131836,6.128407001495361,0.8404034972190857,-1.3075494766235352,0.7933359742164612,0.05744416266679764
13290.0,43.92219543457031,-3.675304889678955,0.8161507248878479,25.489768981933594,6.215495586395264,0.9007992744445801,-1.0787768363952637,0.7672223448753357,0.06359848380088806
13291.0,43.922183990478516,-2.8073556423187256,0.8160723447799683,25.614973068237305,6.244690418243408,0.857688844203949,-0.8334206938743591,0.684142529964447,-0.00814144965261221
13292.0,43.922176361083984,-1.9699842929840088,0.8160134553909302,25.689617156982422,6.217116832733154,0.7108591794967651,-0.5859050154685974,0.6794345378875732,0.046114422380924225
13293.0,43.922176361083984,-1.1621140241622925,0.8159733414649963,25.654598236083984,6.131540298461914,0.6887706518173218,-0.3952495753765106,0.757075846195221,-0.053400151431560516
13294.0,43.922176361083984,-0.38270509243011475,0.8159505128860474,25.679962158203125,6.211357116699219,0.8044215440750122,-0.20986296236515045,0.7306555509567261,-0.06134480983018875
13295.0,43.92217254638672,0.3827281594276428,0.8159441947937012,25.565156936645508,6.081943988800049,0.6564321517944336,0.03453505411744118,0.6598812937736511,-0.03872263804078102
13296.0,43.922176361083984,1.1621371507644653,0.8159528374671936,25.623430252075195,6.162303447723389,0.6689205765724182,0.22310636937618256,0.6775312423706055,0.029384659603238106
13297.0,43.922176361083984,1.9700068235397339,0.8159774541854858,25.543378829956055,5.9296040534973145,0.5134411454200745,0.48991939425468445,0.7302513718605042,-0.036134641617536545
13298.0,43.922183990478516,2.807377338409424,0.8160195350646973,25.672367095947266,6.295097351074219,0.7650113701820374,0.6503517031669617,0.7778767943382263,-0.07565724849700928
13299.0,43.92218780517578,3.6753270626068115,0.8160830140113831,25.530803680419922,6.145450115203857,0.8953295946121216,0.9254346489906311,0.743910551071167,0.023424845188856125
13300.0,43.92220687866211,4.57496976852417,0.8161702156066895,25.358657836914062,6.07645845413208,0.7985899448394775,1.1913129091262817,0.7548108100891113,-0.057320594787597656
13493.0,46.29248809814453,-4.575023174285889,0.8261905312538147,29.274139404296875,7.749045372009277,-1.0466305017471313,-1.0331169366836548,0.18851488828659058,0.11809242516756058
13494.0,46.29248046875,-3.6753671169281006,0.8261491060256958,29.46287727355957,7.786877632141113,-1.1133123636245728,-0.889729380607605,0.18426001071929932,0.04620998352766037
13495.0,46.29247283935547,-2.8074045181274414,0.8261173963546753,29.68844985961914,8.091645240783691,-0.976959764957428,-0.682823121547699,0.14617013931274414,0.025089774280786514
13496.0,46.29247283935547,-1.9700201749801636,0.8260935544967651,29.712772369384766,8.043109893798828,-0.8943514823913574,-0.5026888847351074,0.1942768096923828,-0.01510081347078085
13497.0,46.292457580566406,-1.1621373891830444,0.8260775208473206,29.842023849487305,8.083178520202637,-0.8336178064346313,-0.32843753695487976,0.3056251108646393,0.015675881877541542
13498.0,46.292457580566406,-0.3827166259288788,0.8260684013366699,29.958541870117188,8.106342315673828,-0.8390988707542419,-0.15295326709747314,0.3221222162246704,0.11735795438289642
13499.0,46.292457580566406,0.38272857666015625,0.8260654211044312,29.952091217041016,8.119819641113281,-0.9481630921363831,0.032377421855926514,0.2781185805797577,0.06658276915550232
13500.0,46.29246520996094,1.1621497869491577,0.8260688185691833,30.02164077758789,8.222161293029785,-0.7000040411949158,0.2251732498407364,0.3093956410884857,0.05417180433869362
13501.0,46.29246520996094,1.9700316190719604,0.8260779976844788,29.82137680053711,7.980067729949951,-0.7226499319076538,0.40444207191467285,0.35046881437301636,-0.010464674793183804
13502.0,46.29247283935547,2.807415008544922,0.8260940909385681,29.72433090209961,8.098869323730469,-0.8923830389976501,0.5571362972259521,0.25984254479408264,-0.07471705228090286
13503.0,46.292476654052734,3.675377368927002,0.8261195421218872,29.48381233215332,7.876342296600342,-1.1388353109359741,0.762018620967865,0.19423741102218628,-0.023138582706451416
13697.0,48.749454498291016,-4.575092792510986,0.831786572933197,33.94646072387695,11.069968223571777,1.2331067323684692,-0.7868889570236206,0.7291889786720276,0.11243886500597
13698.0,48.749454498291016,-3.6754231452941895,0.8317784070968628,34.13722610473633,11.129921913146973,1.2974187135696411,-0.651220977306366,0.7258197069168091,0.0341542549431324
13699.0,48.749454498291016,-2.8074491024017334,0.8317722082138062,34.29377746582031,11.26943302154541,1.1500473022460938,-0.5229526162147522,0.627031147480011,0.028703372925519943
13700.0,48.74945068359375,-1.97005295753479,0.8317676186561584,34.262908935546875,11.085079193115234,0.8558011054992676,-0.374759703874588,0.5625853538513184,-0.029396239668130875
13701.0,48.74945068359375,-1.1621588468551636,0.8317650556564331,34.36802291870117,11.187198638916016,0.9501308798789978,-0.1914493888616562,0.6130130290985107,0.003936390858143568
13702.0,48.74945068359375,-0.3827263116836548,0.8317633867263794,34.46051025390625,11.289600372314453,1.1441693305969238,-0.09730934351682663,0.6571465134620667,0.07537765055894852
13703.0,48.74945068359375,0.38273003697395325,0.8317627310752869,34.3819580078125,11.200634002685547,0.9990378618240356,0.022027455270290375,0.6546229720115662,0.06554052978754044
13704.0,48.74945068359375,1.162162184715271,0.8317632079124451,34.302181243896484,11.132240295410156,0.889461100101471,0.14521096646785736,0.6338870525360107,0.04405326023697853
13705.0,48.749454498291016,1.970056414604187,0.8317646980285645,34.210601806640625,11.033622741699219,0.8361760377883911,0.27970054745674133,0.618439257144928,-0.001447230693884194
13706.0,48.749454498291016,2.8074517250061035,0.8317676186561584,34.24026107788086,11.185311317443848,1.035256266593933,0.4407903552055359,0.6095181107521057,-0.032292816787958145
13707.0,48.749454498291016,3.675426721572876,0.8317727446556091,34.17423629760742,11.190497398376465,1.2160459756851196,0.5677743554115295,0.6729950904846191,-0.0319056399166584
13708.0,48.749454498291016,4.575096607208252,0.8317800164222717,33.99319076538086,11.129087448120117,1.2325211763381958,0.7327913641929626,0.7379407286643982,-0.022373108193278313
6976.0,0.390328586101532,4.675948619842529,1.7874746322631836,144.4254150390625,236.056884765625,7.652356147766113,6.854194164276123,-2.8132224082946777,-47.53207015991211
6977.0,0.38990163803100586,5.619082450866699,1.5569764375686646,129.6265869140625,182.24777221679688,12.506166458129883,5.264888763427734,-3.266045093536377,-62.388755798339844
6978.0,0.3878891170024872,6.561224937438965,1.290152907371521,131.283447265625,71.32180786132812,22.44074821472168,0.8911585211753845,-4.9995551109313965,-45.161319732666016
6979.0,0.38550499081611633,7.523548603057861,1.0397273302078247,7.1537933349609375,-110.07915496826172,-4.7604451179504395,-2.9250149726867676,-2.4912588596343994,-24.20873260498047
6980.0,0.3838924169540405,8.533591270446777,0.859712541103363,-80.0526123046875,-117.88404846191406,-42.731998443603516,-1.298179030418396,1.5403841733932495,34.22476577758789
6981.0,0.3831165134906769,9.595017433166504,0.7639057636260986,-73.39643096923828,-102.92958068847656,20.19283103942871,-2.0038607120513916,-1.1494137048721313,-2.9422261714935303
6982.0,0.3827759921550751,10.704427719116211,0.7167683243751526,-36.7237548828125,-89.34490966796875,-12.597753524780273,-2.3531696796417236,0.7324925661087036,14.185164451599121
6983.0,0.3827238380908966,11.859485626220703,0.6902331113815308,-29.335420608520508,-59.667903900146484,7.189307689666748,-1.674409031867981,-0.25839051604270935,-1.777625322341919
6984.0,0.3826932907104492,13.057287216186523,0.6722357273101807,-32.768402099609375,-43.18340301513672,-4.544397830963135,-0.45531579852104187,0.21763671934604645,5.8788299560546875
6985.0,0.38267916440963745,14.299209594726562,0.6599701046943665,-27.165393829345703,-26.786455154418945,2.423617124557495,-0.038611266762018204,-0.161016047000885,-0.2711505591869354
6986.0,0.3826718032360077,15.586698532104492,0.6519520878791809,-27.685314178466797,-22.12249755859375,-1.7838809490203857,0.11986137926578522,0.11388611793518066,1.1295310258865356
6987.0,0.38267257809638977,16.921297073364258,0.6474812626838684,-24.73198127746582,-17.524595260620117,1.4613020420074463,0.29741621017456055,-0.09926791489124298,0.5491087436676025
6988.0,0.3826773166656494,18.304723739624023,0.646311342716217,-23.196321487426758,-12.678173065185547,-1.084375262260437,0.22198165953159332,0.07713579386472702,0.6161313056945801
6989.0,0.3826787769794464,19.738731384277344,0.6480684876441956,-20.585813522338867,-9.86906909942627,1.0307321548461914,0.17498718202114105,-0.041404712945222855,0.3193420469760895
6990.0,0.38268229365348816,21.22515869140625,0.6525383591651917,-18.815610885620117,-5.894737720489502,-0.8403872847557068,0.2734256088733673,-0.030201377347111702,0.6065941452980042
6991.0,0.38268807530403137,22.765913009643555,0.6594331860542297,-16.36979866027832,-3.5339527130126953,0.637888491153717,0.23799659311771393,0.04826619476079941,0.228927880525589
6992.0,0.38269275426864624,24.36296272277832,0.6685342192649841,-14.482877731323242,-0.3767376244068146,-0.40221360325813293,0.17531082034111023,0.022297276183962822,0.5104261040687561
6993.0,0.3826955556869507,26.018373489379883,0.679588794708252,-12.514871597290039,1.5945141315460205,0.26434239745140076,0.10798902064561844,-0.13528434932231903,0.22080276906490326
6994.0,0.38269683718681335,27.73426628112793,0.6923685669898987,-10.5104398727417,4.458986282348633,-0.20609810948371887,0.0762539803981781,-0.08936411887407303,0.4254269003868103
6995.0,0.38269710540771484,29.512861251831055,0.7066006064414978,-8.470610618591309,6.63594388961792,0.08296065777540207,0.08144273608922958,0.033697083592414856,0.1454969197511673
6996.0,0.38269877433776855,31.35643196105957,0.7220106720924377,-6.504214763641357,8.864462852478027,-0.04688194766640663,0.14213143289089203,0.027615008875727654,0.6420049071311951
6997.0,0.382700651884079,33.26736831665039,0.7382645606994629,-4.457342147827148,11.295210838317871,-0.09899259358644485,0.06521576642990112,-0.06187746301293373,0.3256244659423828
6998.0,0.38270360231399536,35.24814224243164,0.754999041557312,-2.3457467555999756,13.759529113769531,0.33215591311454773,0.11030346155166626,-0.07782609015703201,0.7026633024215698
6999.0,0.3827081322669983,37.30130386352539,0.7717542052268982,-0.6336482167243958,16.236791610717773,-0.3463520407676697,0.09770233184099197,-0.05631836876273155,0.16150788962841034
7000.0,0.38271215558052063,39.42951583862305,0.7880009412765503,1.7050740718841553,19.04791259765625,0.39085298776626587,0.03749546408653259,-0.001435024430975318,0.6462640166282654
7001.0,0.3827199637889862,41.63552474975586,0.8030632734298706,3.4466195106506348,22.137910842895508,-0.6123765110969543,0.04853963479399681,0.005469989031553268,0.22335542738437653
7002.0,0.382728636264801,43.922183990478516,0.8161292672157288,5.9898834228515625,25.48564338684082,0.661130964756012,0.05874812230467796,-0.017862088978290558,0.6277620196342468
7003.0,0.38273149728775024,46.292476654052734,0.826142430305481,8.028481483459473,29.67245864868164,-0.8474830389022827,-0.022445417940616608,-0.0466328039765358,0.26388123631477356
7004.0,0.3827309310436249,48.749454498291016,0.8317789435386658,11.12269401550293,34.09379196166992,0.9626527428627014,-0.03604024648666382,-0.022433670237660408,0.5812411308288574
7180.0,1.1863867044448853,4.67704439163208,1.7604944705963135,152.22760009765625,225.74581909179688,6.945929527282715,16.656097412109375,-10.788407325744629,-49.732357025146484
7181.0,1.1840561628341675,5.616264343261719,1.5281380414962769,132.03590393066406,168.61378479003906,13.139165878295898,8.986334800720215,-11.066514015197754,-61.563812255859375
7182.0,1.1766715049743652,6.556113243103027,1.263819694519043,122.97509002685547,47.701934814453125,21.930818557739258,-3.4158036708831787,-9.902670860290527,-42.678001403808594
7183.0,1.1695247888565063,7.519885063171387,1.0196582078933716,-6.3635969161987305,-117.90509796142578,-3.290062189102173,-12.350730895996094,-3.437142848968506,-17.397703170776367
7184.0,1.1651310920715332,8.531697273254395,0.8485549688339233,-92.3963623046875,-117.81200408935547,-40.73075866699219,-4.95716667175293,-0.6303815245628357,34.544612884521484
7185.0,1.1630314588546753,9.59421443939209,0.759333074092865,-76.06261444091797,-98.89246368408203,20.581357955932617,-3.6820645332336426,-1.036216378211975,-2.530102491378784
7186.0,1.162157416343689,10.704294204711914,0.7148351669311523,-39.066768646240234,-85.7286376953125,-13.592865943908691,-7.809177875518799,0.3800705671310425,13.756826400756836
7187.0,1.1620140075683594,11.859427452087402,0.6890585422515869,-30.274507522583008,-57.918399810791016,8.245606422424316,-4.397600173950195,0.19156502187252045,-1.7587745189666748
7188.0,1.161929726600647,13.057267189025879,0.6714574098587036,-34.08808898925781,-41.79958724975586,-5.49006986618042,-1.5242722034454346,0.26127859950065613,6.121150493621826
7189.0,1.1618982553482056,14.299211502075195,0.6594372391700745,-27.182220458984375,-26.500383377075195,3.2257442474365234,-0.008642427623271942,-0.19472895562648773,-0.5029630661010742
7190.0,1.1618865728378296,15.586701393127441,0.6515774130821228,-27.77747917175293,-22.158048629760742,-2.540386438369751,0.19267407059669495,0.09857886284589767,1.5074892044067383
7191.0,1.1618914604187012,16.921308517456055,0.6472275257110596,-24.45352554321289,-17.486358642578125,1.8745386600494385,0.7000674605369568,-0.09557212889194489,0.27177438139915466
7192.0,1.1619046926498413,18.304733276367188,0.6461421847343445,-23.331764221191406,-12.697736740112305,-1.6942942142486572,0.5235548615455627,0.14461684226989746,0.766514241695404
7193.0,1.1619168519973755,19.738740921020508,0.6479650139808655,-20.40095329284668,-9.822272300720215,1.4131039381027222,0.6929883360862732,-0.08954939246177673,0.20243015885353088
7194.0,1.1619330644607544,21.22516632080078,0.652479350566864,-18.801050186157227,-5.940067768096924,-1.0723029375076294,0.6044498085975647,-0.012539880350232124,0.7544798254966736
7195.0,1.1619511842727661,22.76591682434082,0.6594076752662659,-16.269521713256836,-3.448840618133545,1.0098544359207153,0.6374096274375916,0.03666457533836365,0.2769377529621124
7196.0,1.1619690656661987,24.362972259521484,0.6685302257537842,-14.725302696228027,-0.5049338340759277,-0.6464707255363464,0.549900472164154,0.11480079591274261,0.5544586181640625
7197.0,1.1619848012924194,26.018375396728516,0.679600179195404,-12.427846908569336,1.6407040357589722,0.4940783977508545,0.5818911194801331,-0.0262309443205595,0.21681751310825348
7198.0,1.1620001792907715,27.734270095825195,0.6923900842666626,-10.522393226623535,4.393747806549072,-0.36049962043762207,0.4880215525627136,0.049980100244283676,0.48342442512512207
7199.0,1.162014126777649,29.512863159179688,0.706627607345581,-8.335820198059082,6.733304023742676,0.27665913105010986,0.4539446234703064,0.037373367697000504,0.2260727733373642
7200.0,1.1620296239852905,31.356441497802734,0.7220392823219299,-6.607081890106201,8.817713737487793,-0.13776086270809174,0.4773878753185272,0.032944291830062866,0.5824132561683655
7201.0,1.1620454788208008,33.26737594604492,0.7382913827896118,-4.552849292755127,11.225217819213867,0.008669976145029068,0.41694164276123047,-0.030339449644088745,0.1563292145729065
7202.0,1.1620618104934692,35.24814987182617,0.7550222873687744,-2.471122980117798,13.702547073364258,0.1485574096441269,0.4482881724834442,-0.01416325569152832,0.6508044600486755
7203.0,1.1620796918869019,37.30131149291992,0.7717729806900024,-0.548068106174469,16.27033805847168,-0.25067684054374695,0.42576318979263306,-0.04756692424416542,0.22861936688423157
7204.0,1.162096619606018,39.42951583862305,0.7880148887634277,1.6557257175445557,18.93910026550293,0.3876836895942688,0.36746180057525635,-0.02322477288544178,0.6477475762367249
7205.0,1.1621164083480835,41.635528564453125,0.8030723333358765,3.5255866050720215,22.17509651184082,-0.5097415447235107,0.3661406338214874,-0.011343438178300858,0.18210533261299133
7206.0,1.1621371507644653,43.92218780517578,0.8161336183547974,6.150564193725586,25.599594116210938,0.666617214679718,0.29028570652008057,-0.017660021781921387,0.6107224822044373
7207.0,1.1621522903442383,46.292476654052734,0.826143741607666,8.00545883178711,29.62960433959961,-0.7723526954650879,0.1999870240688324,-0.004615058656781912,0.24721232056617737
7208.0,1.162163257598877,48.749454498291016,0.8317789435386658,11.000032424926758,34.021358489990234,0.8589180707931519,0.13723696768283844,0.022495750337839127,0.6014730334281921
7384.0,2.012864828109741,4.677487850189209,1.7003250122070312,161.0919952392578,208.70005798339844,9.319991111755371,24.95289421081543,-21.38555908203125,-52.114383697509766
7385.0,2.005849838256836,5.608992576599121,1.4668797254562378,129.86805725097656,144.24256896972656,14.587700843811035,6.4744038581848145,-19.624244689941406,-56.34246063232422
7386.0,1.9915655851364136,6.545795917510986,1.2108229398727417,95.50286102294922,5.836674690246582,17.73984718322754,-17.416053771972656,-18.38627052307129,-39.46026611328125
7387.0,1.9801799058914185,7.512962341308594,0.9812718033790588,-45.80260467529297,-137.400634765625,-34.32261276245117,-23.213092803955078,-8.579559326171875,-8.096413612365723
7388.0,1.9739580154418945,8.528349876403809,0.8284486532211304,-111.10044860839844,-118.69823455810547,-42.2637939453125,-3.4054219722747803,3.710310220718384,33.17362594604492
7389.0,1.9709880352020264,9.592818260192871,0.7511299848556519,-77.5504379272461,-92.88542175292969,22.568449020385742,-5.431271553039551,-2.0301015377044678,-1.8521754741668701
7390.0,1.9699475765228271,10.704065322875977,0.7110901474952698,-41.98280334472656,-79.04016876220703,-15.421639442443848,-9.922096252441406,1.6460779905319214,12.718453407287598
7391.0,1.969726800918579,11.859328269958496,0.6867584586143494,-32.24482345581055,-54.675533294677734,9.745301246643066,-6.277347087860107,-0.5639795660972595,-1.2897316217422485
7392.0,1.9696027040481567,13.057234764099121,0.669955849647522,-35.427974700927734,-39.90852737426758,-6.8258209228515625,-1.6795804500579834,0.9933308959007263,5.9988322257995605
7393.0,1.96956467628479,14.299210548400879,0.6584351062774658,-27.303163528442383,-25.734512329101562,4.390171527862549,-0.18639637529850006,-0.5980649590492249,-0.6775331497192383
7394.0,1.96955406665802,15.586709976196289,0.6509013175964355,-28.465328216552734,-22.307598114013672,-3.219038248062134,0.3810259997844696,0.44274187088012695,1.694154977798462
7395.0,1.9695641994476318,16.921323776245117,0.6468020081520081,-24.42857551574707,-17.230588912963867,2.360278367996216,1.0223636627197266,-0.2857637107372284,0.08090757578611374
7396.0,1.9695863723754883,18.30474853515625,0.6458912491798401,-23.57127571105957,-12.869811058044434,-1.941518783569336,0.9682596921920776,0.21638324856758118,0.9564138650894165
7397.0,1.9696110486984253,19.73875617980957,0.6478485465049744,-20.246362686157227,-9.667933464050293,1.557025671005249,1.052327275276184,-0.24783948063850403,0.08472155034542084
7398.0,1.9696398973464966,21.22517967224121,0.652454137802124,-18.969863891601562,-6.185649394989014,-1.2407315969467163,1.0624264478683472,0.13488681614398956,0.6515361666679382
7399.0,1.9696705341339111,22.765932083129883,0.6594486832618713,-16.235689163208008,-3.4074361324310303,0.9557023644447327,1.0581310987472534,-0.02590726688504219,0.26958897709846497
7400.0,1.969701886177063,24.36298370361328,0.6686141490936279,-14.656777381896973,-0.5883216261863708,-0.7621473670005798,0.9927849769592285,0.09706556797027588,0.5483103394508362
7401.0,1.9697320461273193,26.018388748168945,0.67971271276474,-12.217019081115723,1.7987366914749146,0.6137260794639587,0.9435633420944214,-0.09325672686100006,0.2757923901081085
7402.0,1.969761610031128,27.734283447265625,0.6925151348114014,-10.596634864807129,4.268721103668213,-0.4369799792766571,0.9511890411376953,0.021984832361340523,0.4961746037006378
7403.0,1.969789743423462,29.512874603271484,0.7067557573318481,-8.335217475891113,6.676024436950684,0.19124735891819,0.8525748252868652,-0.0059434156864881516,0.2418796718120575
7404.0,1.9698190689086914,31.356447219848633,0.7221623063087463,-6.527520179748535,8.873116493225098,-0.07010079175233841,0.8811054825782776,0.005673636682331562,0.5339106917381287
7405.0,1.9698487520217896,33.267391204833984,0.7384032607078552,-4.579257488250732,11.18160629272461,0.015470931306481361,0.8223890662193298,-0.04259410500526428,0.20977112650871277
7406.0,1.9698792695999146,35.2481575012207,0.7551180124282837,-2.4615628719329834,13.683005332946777,0.25072047114372253,0.7951886653900146,-0.01853327266871929,0.6711015701293945
7407.0,1.9699113368988037,37.30131912231445,0.7718506455421448,-0.6421878337860107,16.193754196166992,-0.3608500361442566,0.6835035681724548,-0.01859087496995926,0.20875486731529236
7408.0,1.969941258430481,39.42952346801758,0.7880730628967285,1.6185376644134521,18.856531143188477,0.37176263332366943,0.6338747143745422,0.08743924647569656,0.6544511318206787
7409.0,1.9699742794036865,41.63553237915039,0.8031116724014282,3.5296518802642822,22.139484405517578,-0.46891549229621887,0.630873441696167,0.04671448841691017,0.1621420830488205
7410.0,1.9700068235397339,43.92218780517578,0.8161558508872986,5.920407295227051,25.45905876159668,0.6088636517524719,0.46364232897758484,0.01440533995628357,0.5379167199134827
7411.0,1.9700337648391724,46.29248046875,0.8261522054672241,7.894501686096191,29.590221405029297,-0.7522023916244507,0.3404834270477295,-0.033547285944223404,0.20393255352973938
7412.0,1.9700573682785034,48.749454498291016,0.8317803144454956,11.03812313079834,34.00631332397461,0.9603279829025269,0.2730494439601898,-0.011462136171758175,0.6325290203094482
7589.0,2.85176682472229,5.595061779022217,1.3726131916046143,119.97889709472656,112.30833435058594,18.58915901184082,-2.908621072769165,-24.447917938232422,-46.775630950927734
7590.0,2.832265615463257,6.531573295593262,1.1346977949142456,57.962886810302734,-34.35343551635742,13.98427677154541,-33.518367767333984,-11.330999374389648,-34.21121597290039
7591.0,2.8184447288513184,7.504577159881592,0.9320868849754333,-79.02519989013672,-135.8946075439453,-56.371246337890625,-22.534700393676758,12.518444061279297,10.016764640808105
7592.0,2.8112597465515137,8.524336814880371,0.804873526096344,-109.50701141357422,-113.93724060058594,-18.87218475341797,-0.6137566566467285,6.337226867675781,21.85643196105957
7593.0,2.8080313205718994,9.591187477111816,0.7406205534934998,-81.55277252197266,-95.51520538330078,9.505093574523926,-8.448691368103027,-0.5318646430969238,2.234358072280884
7594.0,2.8071768283843994,10.703841209411621,0.7057732343673706,-40.88825988769531,-73.7273941040039,-5.995678424835205,-10.337004661560059,2.0623648166656494,9.616912841796875
7595.0,2.806882858276367,11.859220504760742,0.6833934783935547,-38.0933837890625,-52.13666534423828,3.0362396240234375,-5.879384994506836,-0.5737258791923523,0.5668230652809143
7596.0,2.8067493438720703,13.05720329284668,0.6677584052085876,-34.50062942504883,-37.51338195800781,-2.001424789428711,-1.3688143491744995,1.2547277212142944,4.714056491851807
7597.0,2.8067121505737305,14.299210548400879,0.6569696068763733,-29.613630294799805,-25.547117233276367,0.6431407928466797,0.1680760681629181,-0.5244002938270569,-0.2469303458929062
7598.0,2.806709051132202,15.586724281311035,0.6499313712120056,-27.810810089111328,-21.988359451293945,-0.1770220845937729,0.7311235070228577,0.43325474858283997,1.4027613401412964
7599.0,2.8067281246185303,16.92133903503418,0.6462116837501526,-25.274473190307617,-16.985429763793945,-0.07770129293203354,1.3155015707015991,-0.2345193475484848,0.3141292631626129
7600.0,2.8067610263824463,18.30476951599121,0.6455689072608948,-22.843473434448242,-12.944815635681152,0.1999160200357437,1.392577886581421,0.1908935308456421,0.8285655975341797
7601.0,2.8067991733551025,19.738779067993164,0.647728681564331,-20.810422897338867,-9.496960639953613,-0.13731010258197784,1.465865969657898,-0.1317872852087021,0.22101721167564392
7602.0,2.8068411350250244,21.225202560424805,0.6524753570556641,-18.5677547454834,-6.326818466186523,0.0958627462387085,1.565194010734558,0.10436023026704788,0.4659948945045471
7603.0,2.8068857192993164,22.765949249267578,0.6595715880393982,-16.429521560668945,-3.3306326866149902,-0.23432312905788422,1.5299062728881836,-0.059348173439502716,0.3365144431591034
7604.0,2.806932210922241,24.363004684448242,0.6687999367713928,-14.211572647094727,-0.6386029720306396,0.1360940784215927,1.5225991010665894,0.11252276599407196,0.3544171154499054
7605.0,2.806976318359375,26.01840591430664,0.6799366474151611,-12.323331832885742,1.8546521663665771,-0.1553310602903366,1.3940163850784302,-0.03971630707383156,0.32027366757392883
7606.0,2.8070199489593506,27.73430061340332,0.6927558183670044,-10.149338722229004,4.398702144622803,0.4053492248058319,1.393965244293213,-0.004764188546687365,0.4490199387073517
7607.0,2.8070623874664307,29.51289176940918,0.7069973945617676,-8.586906433105469,6.520798683166504,-0.40142109990119934,1.2708629369735718,0.05028289929032326,0.24095237255096436
7608.0,2.8071062564849854,31.356462478637695,0.7223901748657227,-6.253045082092285,8.963761329650879,0.45481565594673157,1.2690638303756714,0.06611501425504684,0.4802250266075134
7609.0,2.8071508407592773,33.267398834228516,0.7386097311973572,-4.678605556488037,11.041479110717773,-0.5322539210319519,1.1265026330947876,-0.027382897213101387,0.30416491627693176
7610.0,2.8071956634521484,35.2481689453125,0.7552952766418457,-2.2912352085113525,13.669236183166504,0.5534029006958008,1.1645747423171997,0.018975093960762024,0.6648642420768738
7611.0,2.807241678237915,37.301334381103516,0.7719943523406982,-0.6704563498497009,16.1335506439209,-0.640985906124115,1.0447384119033813,0.015533508732914925,0.18415826559066772
7612.0,2.807285785675049,39.429534912109375,0.788180410861969,1.8343487977981567,18.9269962310791,0.7393161058425903,0.9542756676673889,0.039229243993759155,0.644195020198822
7613.0,2.8073313236236572,41.63554000854492,0.8031839728355408,3.3489339351654053,21.966936111450195,-0.7359623908996582,0.8983479142189026,0.004200685303658247,0.17479528486728668
7614.0,2.8073766231536865,43.92219543457031,0.8161965012550354,6.17042350769043,25.501773834228516,0.9311829805374146,0.7251588106155396,0.03129231557250023,0.6374229788780212
7615.0,2.8074169158935547,46.292484283447266,0.8261679410934448,7.982509136199951,29.535188674926758,-0.9837803244590759,0.5558341145515442,-0.0117796054109931,0.20316003262996674
7616.0,2.807453155517578,48.749454498291016,0.831782877445221,11.130799293518066,34.00471115112305,1.1544748544692993,0.418897807598114,-0.0286184661090374,0.6834205985069275
7793.0,3.7197699546813965,5.574623107910156,1.250203251838684,89.99835205078125,55.079689025878906,19.274782180786133,-35.95680618286133,-28.531620025634766,-33.33736801147461
7794.0,3.698901653289795,6.515587329864502,1.0421000719070435,-6.743041515350342,-70.90190887451172,-0.31329062581062317,-50.96429443359375,-6.300861835479736,-21.493492126464844
7795.0,3.685443639755249,7.496048927307129,0.8787842988967896,-96.40558624267578,-114.30213165283203,-31.103740692138672,-13.122084617614746,7.893876075744629,26.998674392700195
7796.0,3.678253173828125,8.520331382751465,0.7809630632400513,-92.216064453125,-104.12016296386719,7.30255126953125,1.0471878051757812,6.455921173095703,4.732648849487305
7797.0,3.675475835800171,9.589865684509277,0.7289032340049744,-78.25115203857422,-102.95384216308594,-5.2657551765441895,-12.018220901489258,0.012717225588858128,8.753009796142578
7798.0,3.6749186515808105,10.703665733337402,0.6991922855377197,-42.20455551147461,-72.30167388916016,2.7429099082946777,-12.975165367126465,2.452881097793579,5.0342936515808105
7799.0,3.6745588779449463,11.859124183654785,0.6791282892227173,-42.14345932006836,-50.103397369384766,-2.600496530532837,-3.9359793663024902,0.052123911678791046,3.3930280208587646
7800.0,3.6744463443756104,13.05717658996582,0.6649386882781982,-33.818511962890625,-35.167240142822266,1.9521143436431885,-1.067983627319336,0.8426288366317749,2.6279351711273193
7801.0,3.674417018890381,14.299217224121094,0.6550807952880859,-31.325284957885742,-25.602994918823242,-2.045321464538574,0.7721168994903564,-0.13327361643314362,0.6243025660514832
7802.0,3.674428939819336,15.58674430847168,0.6486956477165222,-27.257644653320312,-21.487140655517578,1.9164074659347534,1.0342940092086792,0.07461116462945938,0.9164566397666931
7803.0,3.6744608879089355,16.921363830566406,0.6454800963401794,-25.876331329345703,-16.745866775512695,-1.7462843656539917,1.721714735031128,-0.0052666920237243176,0.5283522605895996
7804.0,3.6745071411132812,18.30479621887207,0.6451973915100098,-22.55133819580078,-12.898445129394531,1.4720982313156128,1.8873193264007568,-0.0003661438822746277,0.6179738640785217
7805.0,3.674558401107788,19.738807678222656,0.64762943983078,-21.02646827697754,-9.30038833618164,-1.214354395866394,2.0940091609954834,0.0626828745007515,0.44804471731185913
7806.0,3.6746153831481934,21.225234985351562,0.652564287185669,-18.09087562561035,-6.362825393676758,1.1208758354187012,2.061936140060425,-0.034670453518629074,0.4452059268951416
7807.0,3.674675226211548,22.765979766845703,0.6597940921783447,-16.527212142944336,-3.2249834537506104,-0.9077905416488647,2.0858154296875,0.04673406109213829,0.4117445945739746
7808.0,3.674736499786377,24.363035202026367,0.6691044569015503,-13.885374069213867,-0.5753206610679626,0.9254564642906189,1.992958903312683,0.033417072147130966,0.28093865513801575
7809.0,3.674794912338257,26.018434524536133,0.6802892088890076,-12.61856746673584,1.666401982307434,-0.9035520553588867,1.9367409944534302,0.0554162822663784,0.37382885813713074
7810.0,3.674853801727295,27.73432731628418,0.6931277513504028,-10.006230354309082,4.305119037628174,0.7939981818199158,1.8091260194778442,0.029973480850458145,0.41403746604919434
7811.0,3.6749112606048584,29.512910842895508,0.707366943359375,-8.57689380645752,6.490073204040527,-0.7777026891708374,1.7238303422927856,0.08479274064302444,0.2675890028476715
7812.0,3.6749706268310547,31.356487274169922,0.7227367758750916,-5.97493839263916,8.952103614807129,0.7297377586364746,1.7080576419830322,0.02074095606803894,0.40640494227409363
7813.0,3.675029993057251,33.26742172241211,0.7389218807220459,-4.535521984100342,11.034530639648438,-0.769894540309906,1.5449023246765137,-0.03501841798424721,0.22621393203735352
7814.0,3.6750903129577637,35.24818801879883,0.7555622458457947,-1.9803427457809448,13.738862991333008,0.8623057007789612,1.4924509525299072,0.02879152074456215,0.5576557517051697
7815.0,3.675150156021118,37.30134582519531,0.7722097039222717,-0.7297269105911255,16.043794631958008,-0.8364225029945374,1.3533611297607422,0.008443422615528107,0.15537922084331512
7816.0,3.675208806991577,39.42955017089844,0.7883411049842834,1.8492677211761475,18.823951721191406,0.8398680090904236,1.2154269218444824,0.0027665267698466778,0.7045198678970337
7817.0,3.675266742706299,41.635555267333984,0.8032918572425842,3.302704334259033,21.775362014770508,-1.043594479560852,1.1141225099563599,-0.012049025855958462,0.204147607088089
7818.0,3.675325632095337,43.92220687866211,0.8162574172019958,6.245070934295654,25.462482452392578,1.1065258979797363,0.9365119934082031,-0.025345297530293465,0.7036583423614502
7819.0,3.6753790378570557,46.292484283447266,0.826192319393158,7.693757057189941,29.283008575439453,-1.2565975189208984,0.7603334784507751,0.05899849161505699,0.20872868597507477
7820.0,3.675426959991455,48.74945831298828,0.8317875266075134,11.051148414611816,33.86968994140625,1.237572193145752,0.5669787526130676,0.0259716659784317,0.7646313309669495
7997.0,4.61185884475708,5.552204608917236,1.1096688508987427,21.116439819335938,-14.113312721252441,17.178667068481445,-59.18319320678711,-12.846823692321777,-21.43602752685547
7998.0,4.593749523162842,6.500607013702393,0.9440084099769592,-89.33271789550781,-118.73424530029297,-54.921756744384766,-37.89274597167969,3.245197296142578,9.437943458557129
7999.0,4.582568645477295,7.488013744354248,0.8266863226890564,-100.32290649414062,-115.48924255371094,-16.58452606201172,-6.020962715148926,10.569731712341309,19.85135841369629
8000.0,4.576496124267578,8.516799926757812,0.7568767070770264,-91.61223602294922,-104.11937713623047,5.018240451812744,-0.9135609269142151,1.162089467048645,1.4958178997039795
8001.0,4.574629306793213,9.589068412780762,0.7165941596031189,-60.81932830810547,-92.23963165283203,-1.8979146480560303,-12.258649826049805,2.012737512588501,10.633383750915527
8002.0,4.574241638183594,10.703482627868652,0.6917091012001038,-52.24626922607422,-67.66027069091797,-0.08348436653614044,-14.197417259216309,1.601564645767212,3.10135817527771
8003.0,4.573903560638428,11.859060287475586,0.6741810441017151,-40.09298324584961,-48.43583679199219,0.11907839775085449,-2.462528944015503,1.4204769134521484,4.560978412628174
8004.0,4.573812007904053,13.05716609954834,0.6616221070289612,-35.07525634765625,-32.86195755004883,-0.7491053342819214,-0.40484803915023804,0.09047050774097443,1.4440503120422363
8005.0,4.5737996101379395,14.299234390258789,0.6528429388999939,-30.79366683959961,-25.651262283325195,0.37081214785575867,1.640680193901062,0.4184727072715759,1.0275002717971802
8006.0,4.573831081390381,15.58676815032959,0.6472534537315369,-28.36709213256836,-21.205961227416992,-0.25754499435424805,1.7663155794143677,-0.17764213681221008,0.8784604072570801
8007.0,4.573878765106201,16.92140007019043,0.6446474194526672,-25.270261764526367,-16.329153060913086,0.06867419928312302,2.34060001373291,0.11419118195772171,0.48493435978889465
8008.0,4.573939800262451,18.304838180541992,0.6448133587837219,-22.90310287475586,-12.821610450744629,0.1058109849691391,2.3669469356536865,-0.06929633021354675,0.6050434112548828
8009.0,4.574007511138916,19.738847732543945,0.6475789546966553,-20.566232681274414,-9.17893123626709,-0.2813199758529663,2.5169179439544678,0.17360557615756989,0.3864707350730896
8010.0,4.574079513549805,21.22527313232422,0.652747631072998,-18.273277282714844,-6.410689353942871,0.20239686965942383,2.5209691524505615,-0.005541243124753237,0.4741745591163635
8011.0,4.574155330657959,22.766021728515625,0.6601381897926331,-16.138105392456055,-3.1102349758148193,-0.22401653230190277,2.6611483097076416,0.15042899549007416,0.28828802704811096
8012.0,4.5742316246032715,24.363069534301758,0.6695501804351807,-13.952680587768555,-0.6982799768447876,0.29379990696907043,2.46994686126709,0.06420806050300598,0.3230452537536621
8013.0,4.574306011199951,26.018474578857422,0.680791437625885,-12.109793663024902,1.7844641208648682,-0.3442821800708771,2.3809239864349365,0.06731575727462769,0.3584931492805481
8014.0,4.5743794441223145,27.734357833862305,0.6936488747596741,-9.820342063903809,4.297191143035889,0.45632097125053406,2.294004201889038,-0.012153230607509613,0.4102663993835449
8015.0,4.574453353881836,29.512941360473633,0.7078790068626404,-8.223381996154785,6.540611267089844,-0.48974043130874634,2.235724687576294,-0.006212824955582619,0.243289977312088
8016.0,4.57452917098999,31.356510162353516,0.7232155799865723,-5.939746379852295,8.875049591064453,0.5236003994941711,2.1803386211395264,0.017793625593185425,0.4207184612751007
8017.0,4.574604034423828,33.267452239990234,0.7393502593040466,-4.472038745880127,10.963434219360352,-0.5715989470481873,1.9804526567459106,0.049107249826192856,0.26303669810295105
8018.0,4.57467794418335,35.24821472167969,0.7559265494346619,-2.170915365219116,13.522298812866211,0.5340247750282288,1.9171826839447021,-0.008940367959439754,0.5798389315605164
8019.0,4.574752330780029,37.30137634277344,0.7725025415420532,-0.5325456261634827,16.03093719482422,-0.6047843098640442,1.7542201280593872,-0.014891020953655243,0.1420472413301468
8020.0,4.574825286865234,39.429569244384766,0.7885597944259644,1.9432318210601807,18.75188636779785,0.7660184502601624,1.5567984580993652,-0.008007753640413284,0.6598925590515137
8021.0,4.574897766113281,41.635562896728516,0.803438663482666,3.407616138458252,21.70268440246582,-0.8381272554397583,1.4362984895706177,-0.029849154874682426,0.15280364453792572
8022.0,4.57496976852417,43.922218322753906,0.8163403272628784,6.189798355102539,25.333253860473633,1.0508307218551636,1.1864720582962036,-0.05900466442108154,0.6454557776451111
8023.0,4.575035095214844,46.292503356933594,0.8262261748313904,7.747025489807129,29.224735260009766,-0.982363224029541,0.9267424941062927,0.010226340033113956,0.1656734198331833
8024.0,4.575096607208252,48.74945831298828,0.8317942023277283,10.986898422241211,33.70742416381836,1.2408581972122192,0.697946310043335,-0.0014200255973264575,0.773850679397583
8201.0,5.533153057098389,5.533318042755127,0.9701467752456665,-86.65362548828125,-91.15528869628906,-42.21180725097656,-46.70763397216797,-6.3907270431518555,-4.930549144744873
8202.0,5.5200114250183105,6.488731861114502,0.8575323820114136,-106.07622528076172,-108.28319549560547,-22.497453689575195,-11.574332237243652,17.710004806518555,22.620603561401367
8203.0,5.511614799499512,7.481342792510986,0.7816609144210815,-99.60829162597656,-104.75714874267578,2.8923444747924805,-3.190315008163452,5.374251842498779,3.732067108154297
8204.0,5.507683753967285,8.514269828796387,0.7339807748794556,-89.84635925292969,-102.11090850830078,-2.2016894817352295,-9.881905555725098,1.8021479845046997,7.565235614776611
8205.0,5.506682872772217,9.588583946228027,0.7041450142860413,-52.43897247314453,-74.08450317382812,0.5992709994316101,-14.696016311645508,2.006333351135254,4.147339344024658
8206.0,5.506300926208496,10.703287124633789,0.6837135553359985,-54.47564697265625,-59.47061538696289,-0.9445356726646423,-7.830906391143799,2.0125303268432617,3.7888028621673584
8207.0,5.50608491897583,11.859007835388184,0.668797492980957,-39.57784652709961,-44.81150817871094,0.6334956288337708,-3.1860647201538086,1.1002625226974487,3.381225824356079
8208.0,5.506007671356201,13.057174682617188,0.6579675078392029,-35.156124114990234,-31.25979995727539,-1.2357970476150513,1.469200849533081,0.5307586193084717,1.4516457319259644
8209.0,5.506022930145264,14.29926872253418,0.6503702998161316,-30.63551139831543,-25.705339431762695,0.940092921257019,2.0511786937713623,0.21702755987644196,0.8474439978599548
8210.0,5.506071090698242,15.586808204650879,0.6456921696662903,-28.332975387573242,-20.607046127319336,-0.8307628035545349,2.6444060802459717,0.23267389833927155,1.0142611265182495
8211.0,5.506139755249023,16.92144775390625,0.6437776684761047,-24.92418098449707,-16.150236129760742,0.656532347202301,2.832329034805298,0.05267297849059105,0.3869702219963074
8212.0,5.5062174797058105,18.304887771606445,0.6444666385650635,-22.90811538696289,-12.63227653503418,-0.5423536896705627,3.066885232925415,0.07762125134468079,0.6061286330223083
8213.0,5.506302356719971,19.73890495300293,0.6476131081581116,-20.125877380371094,-9.024640083312988,0.36030876636505127,3.184333324432373,-0.0074069565162062645,0.27100101113319397
8214.0,5.506392955780029,21.225326538085938,0.6530566811561584,-17.912763595581055,-6.139976501464844,-0.12158756703138351,3.1943092346191406,0.14182721078395844,0.4622651934623718
8215.0,5.506484508514404,22.766069412231445,0.6606335043907166,-15.57047176361084,-3.005380868911743,0.226029172539711,3.1041109561920166,0.13898487389087677,0.2582664489746094
8216.0,5.506576061248779,24.363115310668945,0.6701641082763672,-13.859869956970215,-0.7205367088317871,-0.04843822494149208,3.026184558868408,0.04634123668074608,0.4016872048377991
8217.0,5.506665229797363,26.01852035522461,0.6814663410186768,-11.871397972106934,1.7498825788497925,-0.024168286472558975,2.918449640274048,-0.048435963690280914,0.27281418442726135
8218.0,5.506755828857422,27.734403610229492,0.6943396925926208,-9.791146278381348,4.24220609664917,0.12955884635448456,2.8200631141662598,0.010093812830746174,0.39110133051872253
8219.0,5.5068464279174805,29.51298713684082,0.7085497379302979,-7.965042591094971,6.4923248291015625,-0.2514176666736603,2.6645593643188477,0.04552653059363365,0.2561852037906647
8220.0,5.506937026977539,31.35655403137207,0.723839282989502,-5.924441814422607,8.792296409606934,0.29246628284454346,2.6289260387420654,0.008390442468225956,0.48467329144477844
8221.0,5.5070271492004395,33.267486572265625,0.7399059534072876,-4.345821380615234,10.891143798828125,-0.3337114155292511,2.3941595554351807,-0.040153857320547104,0.311408668756485
8222.0,5.507116317749023,35.24824905395508,0.7563990354537964,-2.126775026321411,13.441956520080566,0.4114556312561035,2.3105275630950928,-0.017658410593867302,0.6606695652008057
8223.0,5.507206439971924,37.301395416259766,0.7728815674781799,-0.5665423274040222,15.807425498962402,-0.5959382057189941,2.1113698482513428,0.01775132119655609,0.1951063722372055
8224.0,5.507293701171875,39.429595947265625,0.7888425588607788,1.77094566822052,18.524702072143555,0.597707986831665,1.855198621749878,0.02351941354572773,0.5950168967247009
8225.0,5.507380962371826,41.63559341430664,0.8036283850669861,3.3199479579925537,21.501264572143555,-0.7693284749984741,1.6870930194854736,0.024805206805467606,0.10872315615415573
8226.0,5.507465362548828,43.922237396240234,0.8164476752281189,6.007735729217529,25.02979850769043,0.7639902830123901,1.415299654006958,-0.013160697184503078,0.6323449611663818
8227.0,5.507544994354248,46.29250717163086,0.8262701630592346,7.721989154815674,28.97282600402832,-0.9917279481887817,1.1154710054397583,0.0015350786270573735,0.10900038480758667
8228.0,5.507619857788086,48.74946594238281,0.8318032026290894,10.853084564208984,33.43307876586914,1.0094021558761597,0.8671413660049438,0.002647086512297392,0.6913838982582092
8405.0,6.488670825958252,5.520052909851074,0.8576699495315552,-107.02288818359375,-103.20886993408203,-21.876893997192383,-11.92071533203125,22.945188522338867,17.327056884765625
8406.0,6.480032920837402,6.480063438415527,0.7919692993164062,-105.62501525878906,-104.69923400878906,-7.8343400955200195,-5.329966068267822,6.592085838317871,6.810516357421875
8407.0,6.475003242492676,7.476927757263184,0.7454929351806641,-97.7247314453125,-101.97865295410156,3.1803407669067383,-4.070138454437256,2.347435235977173,3.2698824405670166
8408.0,6.473266124725342,8.512977600097656,0.71396404504776,-74.3627700805664,-86.20182800292969,-0.9741702675819397,-19.751802444458008,3.4495203495025635,6.821986675262451
8409.0,6.472736358642578,9.588263511657715,0.6920012831687927,-58.932491302490234,-69.33733367919922,-0.3602311909198761,-14.338698387145996,2.6973605155944824,3.5510733127593994
8410.0,6.472395896911621,10.703125953674316,0.6755809187889099,-47.538307189941406,-52.736244201660156,0.1645541936159134,-3.969372034072876,1.9787923097610474,3.993342876434326
8411.0,6.472282886505127,11.858969688415527,0.6632418036460876,-40.365604400634766,-38.669307708740234,-0.5488719344139099,-1.1940027475357056,0.958295464515686,2.3396761417388916
8412.0,6.47224760055542,13.057206153869629,0.6541419625282288,-33.423099517822266,-30.630870819091797,0.10879504680633545,1.997849464416504,0.5105594992637634,1.146597981452942
8413.0,6.472286701202393,14.299309730529785,0.6478061079978943,-30.67083740234375,-25.01986312866211,0.11563538759946823,2.975069284439087,0.12318093329668045,0.9386905431747437
8414.0,6.472358226776123,15.586862564086914,0.6441139578819275,-27.657331466674805,-20.255353927612305,-0.18036115169525146,3.371849298477173,0.22216463088989258,0.7455286383628845
8415.0,6.472443580627441,16.9215087890625,0.6429541707038879,-24.97767448425293,-15.952857971191406,0.12022817879915237,3.660787343978882,0.04423851519823074,0.4618379473686218
8416.0,6.472541809082031,18.30495262145996,0.6442179679870605,-22.434864044189453,-12.352689743041992,-0.13119779527187347,3.695451498031616,0.0722384825348854,0.4410967230796814
8417.0,6.472644805908203,19.73896598815918,0.6477866172790527,-19.9246768951416,-8.944201469421387,0.05547281727194786,3.794151544570923,0.011100823059678078,0.37260115146636963
8418.0,6.47275447845459,21.225387573242188,0.6535348296165466,-17.800519943237305,-6.144473075866699,-0.0430825911462307,3.7796788215637207,0.17962509393692017,0.4664514362812042
8419.0,6.472862243652344,22.766132354736328,0.6613172888755798,-15.742348670959473,-3.275148630142212,-0.1791539043188095,3.6682324409484863,0.11044807732105255,0.40348249673843384
8420.0,6.472969055175781,24.363176345825195,0.6709747910499573,-13.456846237182617,-0.5840516090393066,0.2089056670665741,3.58072829246521,0.02957930788397789,0.43097373843193054
8421.0,6.473075866699219,26.018571853637695,0.682338297367096,-11.567052841186523,1.7169923782348633,-0.16061855852603912,3.4306752681732178,0.02153291553258896,0.2552950084209442
8422.0,6.473182201385498,27.734453201293945,0.6952221393585205,-9.418980598449707,4.315556049346924,0.33572918176651,3.343986749649048,0.03329332172870636,0.4259057641029358
8423.0,6.473288536071777,29.513032913208008,0.7094005346298218,-7.848776817321777,6.374794006347656,-0.18463754653930664,3.142423152923584,0.12987728416919708,0.295217365026474
8424.0,6.473395347595215,31.356599807739258,0.7246261835098267,-5.8244123458862305,8.712981224060059,0.24933978915214539,3.058032512664795,0.09166845679283142,0.510580837726593
8425.0,6.473502159118652,33.26752853393555,0.7406052947044373,-4.127858638763428,10.824771881103516,-0.2859203517436981,2.7995071411132812,-0.04710010439157486,0.23958709836006165
8426.0,6.473605632781982,35.248287200927734,0.7569924592971802,-1.8868447542190552,13.42362117767334,0.5771941542625427,2.6788530349731445,0.002291496843099594,0.5881502628326416
8427.0,6.47371244430542,37.30143737792969,0.7733572721481323,-0.4759802222251892,15.655770301818848,-0.5835022926330566,2.4480159282684326,0.02660222537815571,0.17835985124111176
8428.0,6.473813056945801,39.42962646484375,0.7891970872879028,1.956973910331726,18.44317054748535,0.7407642602920532,2.1790897846221924,-0.006478794850409031,0.6161240935325623
8429.0,6.473914623260498,41.635616302490234,0.8038662672042847,3.4239957332611084,21.353012084960938,-0.7689247727394104,1.9923380613327026,-0.053536590188741684,0.18254011869430542
8430.0,6.474013805389404,43.92225646972656,0.8165823221206665,6.08577823638916,24.87757110595703,0.8771743178367615,1.68941330909729,-0.06831993907690048,0.7120361328125
8431.0,6.4741058349609375,46.29251480102539,0.826326310634613,7.788883686065674,28.775081634521484,-0.8545078039169312,1.3497475385665894,-0.009023292921483517,0.09735916554927826
8432.0,6.474196434020996,48.74946594238281,0.8318151831626892,10.849916458129883,33.22470474243164,1.0469447374343872,1.0466638803482056,0.0010583038674667478,0.6406498551368713
8609.0,7.481315612792969,5.511608600616455,0.781747579574585,-104.07141876220703,-99.3502197265625,2.458282232284546,-3.0886144638061523,3.67378830909729,5.266266345977783
8610.0,7.476905345916748,6.475003242492676,0.7455329298973083,-102.24635314941406,-97.97595977783203,3.068366765975952,-3.6403353214263916,3.188477039337158,2.1062746047973633
8611.0,7.4749979972839355,7.475001811981201,0.7178192734718323,-84.88262176513672,-84.7906494140625,1.1645020246505737,-19.03496551513672,6.615321636199951,6.483234882354736
8612.0,7.474364280700684,8.512429237365723,0.6969492435455322,-64.87798309326172,-68.17314910888672,-2.949500799179077,-13.19748592376709,2.40704607963562,3.1533377170562744
8613.0,7.474009990692139,9.588006019592285,0.680584192276001,-57.41397476196289,-59.83553695678711,1.5207995176315308,-9.065860748291016,3.2604613304138184,4.13926362991333
8614.0,7.47381591796875,10.703033447265625,0.6676949858665466,-44.20486831665039,-46.36874008178711,-1.3596926927566528,-2.048276662826538,1.6223690509796143,3.188141107559204
8615.0,7.473758697509766,11.858969688415527,0.6577568650245667,-37.538692474365234,-34.83079147338867,0.40642499923706055,1.7118275165557861,0.9411830306053162,1.387040376663208
8616.0,7.473781108856201,13.0572509765625,0.6503374576568604,-33.34775161743164,-29.686403274536133,-0.7083109617233276,2.5956881046295166,0.3148590326309204,0.9872321486473083
8617.0,7.473842144012451,14.299376487731934,0.6453089714050293,-29.509540557861328,-24.165653228759766,0.5549359917640686,3.9088990688323975,0.4581180214881897,0.9629167914390564
8618.0,7.473934650421143,15.586936950683594,0.6426381468772888,-27.08053207397461,-19.78034019470215,-0.5241476893424988,4.049557209014893,0.1596268266439438,0.6828275918960571
8619.0,7.47404146194458,16.921585083007812,0.642274796962738,-24.102336883544922,-15.577521324157715,0.32244279980659485,4.397605895996094,0.17457841336727142,0.5529088377952576
8620.0,7.474158763885498,18.305030822753906,0.6441447138786316,-21.765262603759766,-12.045479774475098,-0.20824918150901794,4.4365763664245605,-0.031605497002601624,0.35103940963745117
8621.0,7.4742817878723145,19.739042282104492,0.6481647491455078,-19.330488204956055,-8.84691333770752,0.019209669902920723,4.465000629425049,0.10478448122739792,0.397154301404953
8622.0,7.474407196044922,21.225465774536133,0.6542336940765381,-17.194122314453125,-5.911413192749023,-0.028162984177470207,4.382999897003174,0.03954806551337242,0.4595220685005188
8623.0,7.474532604217529,22.766206741333008,0.6622310280799866,-15.145082473754883,-3.180023193359375,-0.11139505356550217,4.243964672088623,0.0038022026419639587,0.4475850760936737
8624.0,7.474656105041504,24.363248825073242,0.6720171570777893,-13.098984718322754,-0.6040563583374023,0.12527383863925934,4.184831142425537,-0.02248857542872429,0.37687551975250244
8625.0,7.474780559539795,26.01864242553711,0.6834391355514526,-11.39186954498291,1.6231211423873901,-0.2752993404865265,3.9775032997131348,0.07300708442926407,0.300447940826416
8626.0,7.474903583526611,27.734516143798828,0.6963236331939697,-9.31319522857666,4.131419658660889,0.1759915053844452,3.83707857131958,-0.04576006531715393,0.5069413781166077
8627.0,7.475024700164795,29.513093948364258,0.7104559540748596,-7.656769752502441,6.207615852355957,-0.29300549626350403,3.601391077041626,0.0036453886423259974,0.2562805116176605
8628.0,7.475147724151611,31.356657028198242,0.7255983352661133,-5.533328533172607,8.653128623962402,0.3061735928058624,3.514829635620117,0.09389436990022659,0.4552009701728821
8629.0,7.475269794464111,33.267578125,0.7414655089378357,-4.041628360748291,10.66684627532959,-0.41652819514274597,3.2119088172912598,0.04481455683708191,0.17280317842960358
8630.0,7.475390911102295,35.24833679199219,0.7577193975448608,-1.9087591171264648,13.167937278747559,0.48007625341415405,3.0601327419281006,0.01827637292444706,0.581246554851532
8631.0,7.475510597229004,37.301483154296875,0.7739393711090088,-0.48865512013435364,15.452522277832031,-0.5887132287025452,2.801337242126465,0.015056424774229527,0.1821964681148529
8632.0,7.47562837600708,39.42966079711914,0.7896309494972229,1.8653984069824219,18.175752639770508,0.6733812093734741,2.506664276123047,-0.009388252161443233,0.5926571488380432
8633.0,7.475745677947998,41.635650634765625,0.8041576743125916,3.4432406425476074,21.158300399780273,-0.6789511442184448,2.248422622680664,-0.002844937378540635,0.17159652709960938
8634.0,7.475857257843018,43.92227554321289,0.8167480826377869,6.020406723022461,24.603269577026367,0.861788809299469,1.8924171924591064,0.013461642898619175,0.7375221252441406
8635.0,7.475963592529297,46.29253387451172,0.8263950943946838,7.5475921630859375,28.36860466003418,-0.9859756827354431,1.5604208707809448,-0.05046006664633751,0.17455711960792542
8636.0,7.476066589355469,48.74947738647461,0.8318300247192383,10.704766273498535,32.89143753051758,1.0935839414596558,1.2220420837402344,-0.07032802700996399,0.6849689483642578
8813.0,8.514243125915527,5.507659435272217,0.7340141534805298,-102.78345489501953,-89.08397674560547,-2.1514718532562256,-10.022976875305176,7.147068023681641,1.8662545680999756
8814.0,8.512962341308594,6.473254680633545,0.7140102982521057,-85.84485626220703,-73.72118377685547,-0.5949479937553406,-19.707292556762695,6.913142681121826,3.593351125717163
8815.0,8.51242446899414,7.474358081817627,0.6969711780548096,-67.98188018798828,-64.35492706298828,-2.8526670932769775,-13.132001876831055,3.1030006408691406,2.2963998317718506
8816.0,8.512100219726562,8.512099266052246,0.6824550032615662,-60.88686752319336,-60.76913070678711,1.7326602935791016,-10.103541374206543,3.4256739616394043,3.3916873931884766
8817.0,8.511895179748535,9.587834358215332,0.6702852249145508,-48.216617584228516,-49.206565856933594,-0.7419265508651733,-2.357252359390259,2.471719741821289,2.808981418609619
8818.0,8.511826515197754,10.703001976013184,0.6603903770446777,-41.46372985839844,-39.870330810546875,-0.24089232087135315,0.565403401851654,1.4211653470993042,1.8490104675292969
8819.0,8.511832237243652,11.8590087890625,0.6525738835334778,-34.798892974853516,-33.15848159790039,-0.10624872893095016,2.8762223720550537,0.7096302509307861,0.9974557161331177
8820.0,8.511890411376953,13.057313919067383,0.6467790007591248,-32.08900833129883,-28.110366821289062,0.0442773699760437,3.8931803703308105,0.4777197241783142,0.9778157472610474
8821.0,8.511982917785645,14.299460411071777,0.6430477499961853,-28.46357536315918,-23.294462203979492,0.06729024648666382,4.538328647613525,0.3950461745262146,0.8154268860816956
8822.0,8.512096405029297,15.587029457092285,0.6414059996604919,-26.009767532348633,-19.142356872558594,0.023878011852502823,4.927017688751221,0.31836602091789246,0.679627537727356
8823.0,8.512223243713379,16.921682357788086,0.6418474316596985,-23.394790649414062,-15.212224960327148,0.0012890401994809508,5.077113628387451,0.18264713883399963,0.6363548636436462
8824.0,8.512360572814941,18.30512809753418,0.6443348526954651,-21.068605422973633,-11.851006507873535,0.035157982259988785,5.209804058074951,0.06702595204114914,0.4466075599193573
8825.0,8.51250171661377,19.739137649536133,0.648814857006073,-18.736722946166992,-8.623343467712402,0.01871146261692047,5.081386566162109,0.1172202080488205,0.43891239166259766
8826.0,8.51264476776123,21.225555419921875,0.655211865901947,-16.541555404663086,-5.762198448181152,0.20069792866706848,5.071635723114014,0.06110528111457825,0.4046742618083954
8827.0,8.512787818908691,22.76629638671875,0.663424015045166,-14.51900577545166,-3.0207138061523438,-0.09136763215065002,4.836238384246826,0.042472388595342636,0.35250264406204224
8828.0,8.51292896270752,24.363330841064453,0.673334538936615,-12.539937973022461,-0.5659494400024414,0.26767733693122864,4.751644134521484,0.07803700119256973,0.3403663635253906
8829.0,8.513069152832031,26.018722534179688,0.6848048567771912,-10.934693336486816,1.6446408033370972,-0.25427767634391785,4.504789352416992,0.0963296890258789,0.3363783061504364
8830.0,8.51320743560791,27.73459243774414,0.6976743340492249,-8.81502628326416,4.0839619636535645,0.3028322458267212,4.360622406005859,-0.0034113116562366486,0.49013784527778625
8831.0,8.513346672058105,29.513166427612305,0.7117400765419006,-7.334831237792969,6.104221820831299,-0.4206710159778595,4.0770745277404785,0.013775371015071869,0.19393692910671234
8832.0,8.5134859085083,31.356721878051758,0.7267751097679138,-5.318760395050049,8.488753318786621,0.36764007806777954,3.974628210067749,0.08846940100193024,0.40822815895080566
8833.0,8.513625144958496,33.267642974853516,0.7425032258033752,-3.7750704288482666,10.645931243896484,-0.28669536113739014,3.6305978298187256,0.10089217126369476,0.18296900391578674
8834.0,8.51375961303711,35.24839401245117,0.7585949301719666,-1.6593875885009766,13.004334449768066,0.5610871315002441,3.4418580532073975,0.05678115040063858,0.6052500605583191
8835.0,8.513895988464355,37.30152893066406,0.7746400833129883,-0.30558130145072937,15.293204307556152,-0.6010017991065979,3.149343967437744,0.03399461880326271,0.2175379991531372
8836.0,8.514029502868652,39.42971420288086,0.7901526689529419,1.9197722673416138,17.9016170501709,0.5548662543296814,2.8457372188568115,0.02543914131820202,0.6267449855804443
8837.0,8.51416015625,41.635684967041016,0.8045087456703186,3.4486660957336426,20.85846519470215,-0.6874642372131348,2.5431253910064697,0.01843278855085373,0.10501264780759811
8838.0,8.51428508758545,43.922306060791016,0.816948413848877,6.011811256408691,24.31037712097168,0.8365744352340698,2.1296536922454834,0.03568525239825249,0.6188135743141174
8839.0,8.514405250549316,46.29255676269531,0.8264786005020142,7.583722114562988,28.058818817138672,-1.0134328603744507,1.759999394416809,-0.05316087231040001,0.1768014281988144
8840.0,8.514525413513184,48.749481201171875,0.8318480849266052,10.681459426879883,32.53779602050781,1.1298017501831055,1.382790446281433,-0.08207926899194717,0.697865903377533
9017.0,9.588547706604004,5.506653308868408,0.7041782140731812,-73.44164276123047,-51.600242614746094,0.5983774065971375,-14.023245811462402,4.596599578857422,2.31258225440979
9018.0,9.588245391845703,6.472716808319092,0.6920365691184998,-69.32745361328125,-58.373111724853516,-0.470211923122406,-14.093659400939941,3.4537243843078613,2.46221661567688
9019.0,9.587998390197754,7.473998546600342,0.680607795715332,-59.958892822265625,-56.97376251220703,1.4810855388641357,-9.082829475402832,4.111179351806641,3.0550591945648193
9020.0,9.5878324508667,8.511890411376953,0.670295238494873,-49.35439682006836,-47.97677230834961,-0.722263753414154,-2.457512140274048,2.80527400970459,2.627500295639038
9021.0,9.587776184082031,9.587773323059082,0.661362886428833,-42.45005416870117,-42.38674545288086,-1.1160436868667603,-0.24094022810459137,2.0822904109954834,2.035698890686035
9022.0,9.587784767150879,10.703020095825195,0.6538853049278259,-35.61198425292969,-35.179840087890625,0.5058717131614685,3.1191964149475098,0.7784062027931213,1.1240299940109253
9023.0,9.587841987609863,11.859073638916016,0.6479491591453552,-33.47092056274414,-31.21573257446289,-0.42575740814208984,3.7319834232330322,0.6625848412513733,0.9279651045799255
9024.0,9.587931632995605,13.057404518127441,0.6436863541603088,-29.361833572387695,-26.646055221557617,0.2649677097797394,4.984682559967041,0.45230981707572937,0.7846283912658691
9025.0,9.58804988861084,14.299561500549316,0.6412022113800049,-27.231081008911133,-22.274354934692383,-0.3025650680065155,5.444896221160889,0.4411289393901825,0.5868820548057556
9026.0,9.588184356689453,15.587142944335938,0.6405603289604187,-24.418617248535156,-18.483217239379883,0.2026367038488388,5.659798622131348,0.2980712950229645,0.5856694579124451
9027.0,9.588329315185547,16.921796798706055,0.641789436340332,-22.36221694946289,-14.850202560424805,-0.2541135251522064,5.809215068817139,0.1584659367799759,0.5695416331291199
9028.0,9.588484764099121,18.305238723754883,0.6448848247528076,-19.912202835083008,-11.511207580566406,0.26555636525154114,5.8533477783203125,0.1744508445262909,0.42211103439331055
9029.0,9.588644981384277,19.73924446105957,0.6498165726661682,-18.081270217895508,-8.551849365234375,-0.28606274724006653,5.7338948249816895,0.12716174125671387,0.4097593128681183
9030.0,9.588805198669434,21.225662231445312,0.6565337777137756,-15.892942428588867,-5.677794933319092,0.18405665457248688,5.653762340545654,0.03669460117816925,0.3787834942340851
9031.0,9.58896541595459,22.766399383544922,0.6649522185325623,-14.090752601623535,-3.085193395614624,-0.2987176477909088,5.4540934562683105,0.037126120179891586,0.3305322825908661
9032.0,9.589123725891113,24.363431930541992,0.6749730706214905,-11.945331573486328,-0.6180161833763123,0.254817932844162,5.251873016357422,0.05781025439500809,0.38193029165267944
9033.0,9.589279174804688,26.018815994262695,0.6864737868309021,-10.407919883728027,1.5926436185836792,-0.411115825176239,5.019407272338867,0.033178623765707016,0.2877488136291504
9034.0,9.589435577392578,27.734682083129883,0.6993058919906616,-8.307124137878418,4.036785125732422,0.45458170771598816,4.848873615264893,0.056861817836761475,0.4209916889667511
9035.0,9.58958911895752,29.513246536254883,0.7132791876792908,-6.991875171661377,6.049831867218018,-0.34721991419792175,4.530476093292236,0.1115986779332161,0.16839498281478882
9036.0,9.589743614196777,31.35679817199707,0.7281784415245056,-5.0875020027160645,8.310393333435059,0.4230618178844452,4.430521488189697,0.062498755753040314,0.45110467076301575
9037.0,9.589898109436035,33.2677116394043,0.7437372803688049,-3.731809377670288,10.363520622253418,-0.5278924107551575,4.093571186065674,0.06183582544326782,0.236726775765419
9038.0,9.59005069732666,35.24845886230469,0.7596347332000732,-1.5794202089309692,12.704610824584961,0.4424550235271454,3.860903024673462,0.05210389941930771,0.5487692356109619
9039.0,9.590201377868652,37.30159378051758,0.7754710912704468,-0.0696764588356018,15.131905555725098,-0.489696204662323,3.5228898525238037,0.02801300399005413,0.20345796644687653
9040.0,9.590350151062012,39.42976379394531,0.7907714247703552,2.106351613998413,17.721702575683594,0.6941657662391663,3.1585500240325928,0.051973458379507065,0.6821226477622986
9041.0,9.590496063232422,41.6357307434082,0.804924488067627,3.4419538974761963,20.514328002929688,-0.7377209067344666,2.834652900695801,0.0031348911579698324,0.134953573346138
9042.0,9.590636253356934,43.922340393066406,0.8171858191490173,6.054821968078613,24.01213836669922,0.9537663459777832,2.3953402042388916,-0.0001340662274742499,0.5868591666221619
9043.0,9.590771675109863,46.29257583618164,0.8265780806541443,7.50636625289917,27.663740158081055,-0.9928046464920044,1.9697483777999878,-0.03545287624001503,0.14422215521335602
9044.0,9.590903282165527,48.74948501586914,0.8318696022033691,10.502116203308105,32.05601501464844,1.0741714239120483,1.5358836650848389,-0.059798695147037506,0.6780869960784912
9221.0,10.703258514404297,5.506271839141846,0.6837416291236877,-59.208309173583984,-54.35342025756836,-1.2518881559371948,-7.482665061950684,3.0681416988372803,1.836135745048523
9222.0,10.703107833862305,6.472370147705078,0.6756067872047424,-52.69644546508789,-47.051639556884766,0.3459875285625458,-3.8888187408447266,3.873868703842163,1.9628602266311646
9223.0,10.703019142150879,7.473796844482422,0.6677117943763733,-46.64065933227539,-43.990203857421875,-1.383536458015442,-1.9595221281051636,3.2661690711975098,1.7532622814178467
9224.0,10.702999114990234,8.511811256408691,0.6603999137878418,-39.633609771728516,-40.873966217041016,0.01943270117044449,0.5464465022087097,1.8870675563812256,1.449472188949585
9225.0,10.703023910522461,9.587775230407715,0.6538884043693542,-35.354862213134766,-35.566776275634766,0.32574260234832764,3.192033290863037,1.1587179899215698,0.8224536180496216
9226.0,10.703086853027344,10.703080177307129,0.6483902931213379,-33.058624267578125,-32.907894134521484,-0.27417123317718506,3.6712934970855713,0.8623391389846802,0.8609944581985474
9227.0,10.703177452087402,11.859162330627441,0.6441250443458557,-29.60113525390625,-28.628293991088867,0.23865094780921936,5.138255596160889,0.662635862827301,0.8025007843971252
9228.0,10.703298568725586,13.057517051696777,0.6412685513496399,-27.66897201538086,-25.149415969848633,-0.2041437327861786,5.611785888671875,0.48044466972351074,0.7119677066802979
9229.0,10.703435897827148,14.299689292907715,0.639945924282074,-24.906492233276367,-21.104169845581055,0.18011213839054108,6.189578533172607,0.4669191837310791,0.45961230993270874
9230.0,10.70358943939209,15.587273597717285,0.6402453780174255,-23.026840209960938,-17.800596237182617,0.041325394064188004,6.357304096221924,0.32891181111335754,0.5653107762336731
9231.0,10.703750610351562,16.92192840576172,0.6422229409217834,-20.702407836914062,-14.335668563842773,0.054531846195459366,6.471198558807373,0.1846962571144104,0.4016597867012024
9232.0,10.703922271728516,18.305368423461914,0.6458956599235535,-18.843294143676758,-11.200209617614746,0.0631757453083992,6.507457733154297,0.20420506596565247,0.3749319911003113
9233.0,10.704097747802734,19.7393741607666,0.6512555480003357,-16.98384666442871,-8.376888275146484,-0.1501225084066391,6.383437156677246,0.16586267948150635,0.3313380181789398
9234.0,10.704276084899902,21.225784301757812,0.6582689881324768,-14.882246971130371,-5.432185649871826,0.23925161361694336,6.262172698974609,0.11735915392637253,0.38378214836120605
9235.0,10.704452514648438,22.766511917114258,0.6668717861175537,-13.210243225097656,-2.99411940574646,-0.08335283398628235,5.9968366622924805,0.1320910006761551,0.31763532757759094
9236.0,10.70462703704834,24.36353874206543,0.6769800782203674,-11.486281394958496,-0.7128034830093384,0.21479760110378265,5.769320964813232,0.010899923741817474,0.41840070486068726
9237.0,10.70479679107666,26.018918991088867,0.6884865760803223,-9.970051765441895,1.5320414304733276,-0.27321508526802063,5.514867782592773,-0.0121791772544384,0.24251118302345276
9238.0,10.704970359802246,27.73477554321289,0.7012534737586975,-8.122597694396973,3.837944269180298,0.30948880314826965,5.325660705566406,0.10318313539028168,0.40572065114974976
9239.0,10.705138206481934,29.513338088989258,0.7151040434837341,-6.720562934875488,5.8585286140441895,-0.42101263999938965,5.018535137176514,0.13352517783641815,0.18184374272823334
9240.0,10.705307006835938,31.35688591003418,0.7298341393470764,-4.625771999359131,8.222049713134766,0.4985474944114685,4.876712322235107,0.04188656061887741,0.4774683117866516
9241.0,10.705476760864258,33.26779556274414,0.7451873421669006,-3.3630316257476807,10.211605072021484,-0.47321513295173645,4.521078109741211,0.012670362368226051,0.2338949292898178
9242.0,10.705649375915527,35.248531341552734,0.7608522772789001,-1.3541194200515747,12.496771812438965,0.47574666142463684,4.2701029777526855,0.01462074276059866,0.5528557896614075
9243.0,10.705816268920898,37.30165481567383,0.7764421105384827,-0.013203216716647148,14.762784957885742,-0.5548248887062073,3.877277374267578,0.004612698685377836,0.22147205471992493
9244.0,10.705978393554688,39.429813385009766,0.7914938926696777,2.1686995029449463,17.411314010620117,0.6591985821723938,3.4742090702056885,0.026585351675748825,0.6033975481987
9245.0,10.706137657165527,41.63577651977539,0.8054100275039673,3.502542495727539,20.183942794799805,-0.7161670923233032,3.105421304702759,-0.010721542872488499,0.12586598098278046
9246.0,10.706292152404785,43.922386169433594,0.8174629807472229,6.000703811645508,23.589649200439453,0.940367579460144,2.640584707260132,-0.008635938167572021,0.678966760635376
9247.0,10.706442832946777,46.292598724365234,0.8266943693161011,7.422996520996094,27.192729949951172,-0.973935604095459,2.182708740234375,-0.05340486392378807,0.18800045549869537
9248.0,10.706587791442871,48.74949645996094,0.8318947553634644,10.377287864685059,31.556745529174805,1.0787986516952515,1.6934882402420044,-0.07255199551582336,0.6758182048797607
9425.0,11.858979225158691,5.506060600280762,0.6688156723976135,-44.44229507446289,-38.961368560791016,1.1550606489181519,-2.8227434158325195,3.7846333980560303,1.2440563440322876
9426.0,11.858948707580566,6.472262382507324,0.6632535457611084,-38.6533203125,-40.28902816772461,-0.7239788770675659,-0.8262366056442261,2.3403584957122803,0.914675235748291
9427.0,11.858956336975098,7.473738670349121,0.6577619910240173,-34.66140365600586,-37.35459899902344,0.2874464690685272,2.0588531494140625,1.4444923400878906,0.925171434879303
9428.0,11.859002113342285,8.51181697845459,0.6525729298591614,-33.25893783569336,-34.578765869140625,-0.2660815417766571,3.0895140171051025,1.0014820098876953,0.621408224105835
9429.0,11.859070777893066,9.587830543518066,0.647942066192627,-31.329986572265625,-33.2476806640625,-0.5067307949066162,3.7941079139709473,0.9162225723266602,0.8267346024513245
9430.0,11.85916519165039,10.703169822692871,0.6441172957420349,-28.958953857421875,-29.80134391784668,0.0965622067451477,5.128326892852783,0.7251135110855103,0.6272327303886414
9431.0,11.859285354614258,11.85927677154541,0.6413168907165527,-27.027042388916016,-26.857166290283203,-0.2500583231449127,5.620796203613281,0.6621361374855042,0.6868401765823364
9432.0,11.859424591064453,13.057649612426758,0.639714777469635,-24.615543365478516,-23.258255004882812,0.15499629080295563,6.41630220413208,0.4622642397880554,0.6750239729881287
9433.0,11.859580039978027,14.299834251403809,0.6394414901733398,-23.136951446533203,-20.260988235473633,-0.32180413603782654,6.624396800994873,0.36909911036491394,0.489425390958786
9434.0,11.859748840332031,15.587424278259277,0.6406034827232361,-20.929779052734375,-17.001096725463867,0.06920912861824036,6.948848247528076,0.3270260989665985,0.5148307681083679
9435.0,11.859925270080566,16.922075271606445,0.6432672142982483,-19.27220344543457,-13.863211631774902,-0.21280278265476227,6.987548351287842,0.18915988504886627,0.3627578020095825
9436.0,11.860111236572266,18.305517196655273,0.6474689841270447,-17.344270706176758,-10.830803871154785,0.10042129456996918,7.0434064865112305,0.157465398311615,0.3918554484844208
9437.0,11.860299110412598,19.739517211914062,0.6532173156738281,-15.730169296264648,-8.054203033447266,-0.1320788860321045,6.976100921630859,0.14051692187786102,0.3858836889266968
9438.0,11.860494613647461,21.225923538208008,0.6604904532432556,-13.961458206176758,-5.468597412109375,0.10630141943693161,6.842933177947998,0.134779155254364,0.44538643956184387
9439.0,11.860686302185059,22.766647338867188,0.6692432761192322,-12.408751487731934,-3.0278031826019287,-0.21688762307167053,6.577579975128174,0.13822555541992188,0.27413704991340637
9440.0,11.860872268676758,24.363664627075195,0.6794076561927795,-10.615029335021973,-0.7246973514556885,0.17606201767921448,6.309511184692383,0.020271874964237213,0.3630523681640625
9441.0,11.861061096191406,26.019039154052734,0.6908864974975586,-9.160483360290527,1.539646029472351,-0.24543263018131256,6.07167911529541,0.039019737392663956,0.24027003347873688
9442.0,11.861249923706055,27.734893798828125,0.7035531997680664,-7.332043647766113,3.83723783493042,0.29006603360176086,5.821204662322998,0.06555026024580002,0.39835381507873535
9443.0,11.861433029174805,29.513446807861328,0.7172436118125916,-6.098377704620361,5.7631306648254395,-0.4159526824951172,5.494961738586426,0.03917309641838074,0.19909895956516266
9444.0,11.861617088317871,31.356983184814453,0.7317658066749573,-4.23671293258667,7.996695518493652,0.41152411699295044,5.302051544189453,0.048543982207775116,0.46332472562789917
9445.0,11.86180305480957,33.267887115478516,0.7468729019165039,-2.995591640472412,10.033137321472168,-0.4499204456806183,4.920943737030029,0.027442561462521553,0.2190091907978058
9446.0,11.861988067626953,35.24862289428711,0.7622642517089844,-1.0249704122543335,12.285120010375977,0.5493980050086975,4.664358139038086,0.04223424196243286,0.508147656917572
9447.0,11.862173080444336,37.30173110961914,0.7775663137435913,0.20951750874519348,14.457322120666504,-0.5590506196022034,4.241939544677734,0.07930499315261841,0.2029743492603302
9448.0,11.862349510192871,39.42988967895508,0.7923293709754944,2.258867025375366,17.065277099609375,0.6223652958869934,3.8307034969329834,0.06351137161254883,0.5775157809257507
9449.0,11.862524032592773,41.635833740234375,0.8059715032577515,3.463474750518799,19.726728439331055,-0.7976243495941162,3.4188156127929688,-0.009985954500734806,0.11414109915494919
9450.0,11.862691879272461,43.922428131103516,0.8177834153175354,5.922203063964844,23.05955696105957,0.7859082221984863,2.9085869789123535,-0.013296974822878838,0.6711832284927368
9451.0,11.862853050231934,46.29262924194336,0.8268288969993591,7.285274982452393,26.626995086669922,-0.9731999635696411,2.387256383895874,-0.04519534483551979,0.173505961894989
9452.0,11.86301326751709,48.749507904052734,0.8319240212440491,10.140042304992676,30.944324493408203,1.0483111143112183,1.853995442390442,-0.05963081493973732,0.6384273171424866
9628.0,13.057135581970215,4.573782444000244,0.6616182923316956,-32.502132415771484,-34.86297607421875,-1.2134050130844116,-0.23039653897285461,1.0000666379928589,-0.0928177759051323
9629.0,13.057149887084961,5.505981922149658,0.6579599380493164,-31.06283187866211,-34.72184753417969,-1.7597830295562744,1.3453092575073242,1.0382843017578125,0.3403952419757843
9630.0,13.057188034057617,6.472226142883301,0.6541289687156677,-30.683469772338867,-33.49528884887695,0.07659297436475754,2.059102773666382,1.0046348571777344,0.5142631530761719
9631.0,13.057236671447754,7.473761558532715,0.6503212451934814,-29.637723922729492,-32.967533111572266,-0.4081358313560486,2.6160409450531006,1.0216912031173706,0.28465577960014343
9632.0,13.057306289672852,8.511874198913574,0.6467590928077698,-28.14034652709961,-31.877840042114258,0.106937937438488,4.008012294769287,1.010365605354309,0.5049818158149719
9633.0,13.057402610778809,9.587918281555176,0.6436622738838196,-26.60308837890625,-29.200620651245117,0.4124775230884552,5.007861614227295,0.845944344997406,0.5780896544456482
9634.0,13.05751895904541,10.70328426361084,0.6412462592124939,-25.147768020629883,-27.69810676574707,-0.181296244263649,5.612765312194824,0.7648568153381348,0.34764835238456726
9635.0,13.057655334472656,11.859414100646973,0.6397013664245605,-23.39015007019043,-24.449588775634766,0.1570156365633011,6.4918437004089355,0.6498167514801025,0.38480302691459656
9636.0,13.057809829711914,13.057802200317383,0.6391873359680176,-21.979381561279297,-21.75737190246582,0.08022647351026535,6.796725749969482,0.41184622049331665,0.5188334584236145
9637.0,13.057976722717285,14.299994468688965,0.6398387551307678,-20.287565231323242,-18.911169052124023,0.07101870328187943,7.219760417938232,0.3439921736717224,0.4208078682422638
9638.0,13.058157920837402,15.587587356567383,0.6417623162269592,-18.91179656982422,-16.097694396972656,0.05813359469175339,7.3863301277160645,0.32438310980796814,0.41874003410339355
9639.0,13.058347702026367,16.922243118286133,0.645033597946167,-17.35966682434082,-13.154733657836914,-0.011185809038579464,7.490715980529785,0.26631131768226624,0.35504648089408875
9640.0,13.058541297912598,18.305681228637695,0.6497018933296204,-15.790602684020996,-10.350899696350098,0.2325298935174942,7.502320289611816,0.25705981254577637,0.3619655966758728
9641.0,13.058744430541992,19.73967933654785,0.655784547328949,-14.372062683105469,-7.733921051025391,-0.09137528389692307,7.464634418487549,0.21063388884067535,0.3395281136035919
9642.0,13.05894660949707,21.226076126098633,0.6632707715034485,-12.809014320373535,-5.3280110359191895,0.1561739295721054,7.3213396072387695,0.18593715131282806,0.44407007098197937
9643.0,13.05915641784668,22.766796112060547,0.6721306443214417,-11.307201385498047,-2.9190943241119385,-0.13366013765335083,7.126705646514893,0.18103304505348206,0.2861326038837433
9644.0,13.059358596801758,24.36380386352539,0.6823084354400635,-9.657561302185059,-0.6909027695655823,0.2621173858642578,6.814655780792236,0.11779231578111649,0.35942766070365906
9645.0,13.059560775756836,26.019168853759766,0.693717360496521,-8.347216606140137,1.5182108879089355,-0.2479710578918457,6.577145099639893,0.11139287054538727,0.2664560377597809
9646.0,13.059760093688965,27.735017776489258,0.7062410712242126,-6.817783832550049,3.664210796356201,0.2953493297100067,6.278838157653809,0.07052448391914368,0.3651491403579712
9647.0,13.059958457946777,29.513566970825195,0.7197277545928955,-5.595235824584961,5.654980182647705,-0.2324676662683487,5.964061260223389,0.09510762244462967,0.18062318861484528
9648.0,13.060157775878906,31.357099533081055,0.7339980602264404,-3.9058191776275635,7.718689918518066,0.3778908848762512,5.7443742752075195,0.11745405942201614,0.44614654779434204
9649.0,13.060358047485352,33.26799392700195,0.7488148212432861,-2.6481621265411377,9.842110633850098,-0.3930530250072479,5.353860855102539,0.037011101841926575,0.24826505780220032
9650.0,13.06056022644043,35.248714447021484,0.7638882994651794,-0.8263720870018005,11.937366485595703,0.4627062678337097,5.0875372886657715,0.05344315990805626,0.41878005862236023
9651.0,13.060758590698242,37.301822662353516,0.7788577675819397,0.3458395004272461,14.12052059173584,-0.5333693027496338,4.6122260093688965,0.06746964901685715,0.14939796924591064
9652.0,13.06095027923584,39.42996597290039,0.7932891249656677,2.398867607116699,16.744234085083008,0.7478375434875488,4.173239231109619,0.0194876566529274,0.5916839241981506
9653.0,13.061140060424805,41.63589859008789,0.8066163063049316,3.5691800117492676,19.305543899536133,-0.7502442598342896,3.7432899475097656,0.014544891193509102,0.15869921445846558
9654.0,13.061319351196289,43.922481536865234,0.818151593208313,5.949859619140625,22.559553146362305,0.8483099937438965,3.1892008781433105,0.07449442893266678,0.6448879241943359
9655.0,13.061494827270508,46.292659759521484,0.8269835710525513,7.267982006072998,26.06148910522461,-0.8626083135604858,2.6057517528533936,-0.015943439677357674,0.13448065519332886
9656.0,13.061667442321777,48.749515533447266,0.8319577574729919,9.982555389404297,30.272520065307617,1.0228182077407837,2.02447772026062,-0.07582084089517593,0.6034667491912842
9833.0,14.299240112304688,5.505996227264404,0.6503231525421143,-25.69063949584961,-30.224214553833008,1.4641292095184326,2.1516802310943604,1.0315546989440918,0.30342069268226624
9834.0,14.299287796020508,6.472262859344482,0.6477560997009277,-25.145729064941406,-30.653287887573242,-0.001539959805086255,3.171919345855713,0.9074822664260864,0.1549949049949646
9835.0,14.299360275268555,7.473819732666016,0.6452588438987732,-24.119476318359375,-29.338838577270508,0.37729790806770325,4.062251567840576,0.918647825717926,0.37384912371635437
9836.0,14.29945182800293,8.511963844299316,0.6429968476295471,-23.248870849609375,-28.325332641601562,-0.04289687052369118,4.57693338394165,0.7706584334373474,0.4007914364337921
9837.0,14.299559593200684,9.588034629821777,0.6411516070365906,-22.27825164794922,-27.15873908996582,-0.37464290857315063,5.469895362854004,0.6102253794670105,0.3803894817829132
9838.0,14.299689292907715,10.703421592712402,0.6399007439613342,-21.151124954223633,-24.719406127929688,0.1822049915790558,6.203246593475342,0.5419531464576721,0.34996604919433594
9839.0,14.299835205078125,11.85957145690918,0.6394070982933044,-20.240631103515625,-22.833789825439453,-0.25956669449806213,6.708148956298828,0.452497273683548,0.32667240500450134
9840.0,14.299997329711914,13.05797004699707,0.6398184299468994,-18.8170166015625,-20.111818313598633,0.1427486091852188,7.317030906677246,0.41026708483695984,0.41456741094589233
9841.0,14.300176620483398,14.300169944763184,0.6412608027458191,-17.850488662719727,-17.8100528717041,-0.15987463295459747,7.488720417022705,0.3960425853729248,0.36386987566947937
9842.0,14.300361633300781,15.5877685546875,0.6438365578651428,-16.63752555847168,-15.142716407775879,0.002181058982387185,7.77168607711792,0.28958961367607117,0.34820955991744995
9843.0,14.300558090209961,16.92242431640625,0.6476263999938965,-15.530158996582031,-12.583503723144531,-0.17329934239387512,7.900505542755127,0.23955868184566498,0.3915819823741913
9844.0,14.300760269165039,18.30586051940918,0.6526852250099182,-14.126214981079102,-9.999805450439453,-0.003581087803468108,7.931187629699707,0.18530653417110443,0.362897664308548
9845.0,14.300972938537598,19.739850997924805,0.659034788608551,-12.883950233459473,-7.4844207763671875,-0.1930396556854248,7.881481647491455,0.1517993062734604,0.25882360339164734
9846.0,14.301187515258789,21.22624397277832,0.6666765213012695,-11.395142555236816,-5.123998641967773,0.11724315583705902,7.750900745391846,0.17342782020568848,0.3359754681587219
9847.0,14.301405906677246,22.76695442199707,0.6755907535552979,-10.227757453918457,-2.8883748054504395,-0.23904332518577576,7.523010730743408,0.1342305988073349,0.25835883617401123
9848.0,14.301621437072754,24.36396026611328,0.6857317686080933,-8.76033878326416,-0.725151002407074,0.20227323472499847,7.245720386505127,0.08535398542881012,0.3782542049884796
9849.0,14.301836013793945,26.019317626953125,0.6970224976539612,-7.605032920837402,1.431321620941162,-0.2953577935695648,6.972762107849121,0.09109629690647125,0.26727059483528137
9850.0,14.302048683166504,27.735164642333984,0.7093549370765686,-6.085833549499512,3.555570125579834,0.2862617075443268,6.692595958709717,0.11760050803422928,0.3323657214641571
9851.0,14.302261352539062,29.513702392578125,0.7225900292396545,-5.000545501708984,5.445026874542236,-0.3441668152809143,6.409878730773926,0.13796107470989227,0.2353138029575348
9852.0,14.302475929260254,31.35722541809082,0.7365591526031494,-3.4404377937316895,7.440467357635498,0.2726321518421173,6.172243118286133,0.12102996557950974,0.4516119360923767
9853.0,14.302689552307129,33.26811218261719,0.751035213470459,-2.143707036972046,9.657853126525879,-0.29969680309295654,5.774560928344727,0.0988156870007515,0.2365456521511078
9854.0,14.302907943725586,35.24882507324219,0.7657407522201538,-0.5503683090209961,11.574300765991211,0.31862378120422363,5.4680094718933105,0.10156743973493576,0.4424727261066437
9855.0,14.303117752075195,37.30192184448242,0.7803288102149963,0.606336772441864,13.726729393005371,-0.5867525935173035,4.955093860626221,0.051151398569345474,0.1879889965057373
9856.0,14.303322792053223,39.4300537109375,0.7943814992904663,2.6037991046905518,16.321699142456055,0.664137065410614,4.4703049659729,-0.010237172245979309,0.5299260020256042
9857.0,14.303525924682617,41.6359748840332,0.8073510527610779,3.5991837978363037,18.7896785736084,-0.7895745635032654,4.001255512237549,-0.008968628011643887,0.13460947573184967
9858.0,14.30372428894043,43.92253875732422,0.8185716271400452,5.877703666687012,21.94758415222168,0.8152579069137573,3.436567544937134,0.04267675057053566,0.6593390107154846
9859.0,14.303910255432129,46.292694091796875,0.8271600008010864,7.1260271072387695,25.32345962524414,-0.9236822724342346,2.81290340423584,-0.06931037455797195,0.1382083296775818
9860.0,14.304093360900879,48.749534606933594,0.831995964050293,9.737410545349121,29.457826614379883,0.9641632437705994,2.173248529434204,-0.11024683713912964,0.5929767489433289
10037.0,15.586785316467285,5.506049633026123,0.6455946564674377,-20.212209701538086,-28.334300994873047,-1.4124804735183716,2.8822481632232666,0.9305492043495178,0.07961028069257736
10038.0,15.586845397949219,6.472336292266846,0.6440153121948242,-19.771957397460938,-27.342618942260742,0.029014859348535538,3.605808734893799,0.6842297911643982,0.24798570573329926
10039.0,15.586923599243164,7.473914623260498,0.642540454864502,-19.659303665161133,-27.040983200073242,-0.32237887382507324,4.292856216430664,0.6552560925483704,0.05791374668478966
10040.0,15.587021827697754,8.512077331542969,0.6413115859031677,-19.0466251373291,-25.76658821105957,0.030016379430890083,5.131700038909912,0.6655804514884949,0.2556253671646118
10041.0,15.587137222290039,9.588168144226074,0.6404714584350586,-18.388856887817383,-24.08757209777832,0.3485528230667114,5.892799377441406,0.5685873627662659,0.24256299436092377
10042.0,15.587272644042969,10.703575134277344,0.6401644349098206,-17.826257705688477,-22.946455001831055,-0.05390293151140213,6.467693328857422,0.5696766376495361,0.3153259754180908
10043.0,15.587424278259277,11.859739303588867,0.6405342221260071,-16.9907169342041,-20.756750106811523,0.06543275713920593,6.97847843170166,0.42443588376045227,0.3190929591655731
10044.0,15.587592124938965,13.058150291442871,0.6417100429534912,-16.2286434173584,-18.798255920410156,0.10961806029081345,7.40986967086792,0.47071412205696106,0.3637690544128418
10045.0,15.587770462036133,14.300359725952148,0.6438068747520447,-15.34126091003418,-16.408639907836914,-0.0010111551964655519,7.763306140899658,0.4692511260509491,0.2914092242717743
10046.0,15.587960243225098,15.587960243225098,0.646921694278717,-14.316390037536621,-14.165093421936035,0.11829746514558792,7.962502479553223,0.32735276222229004,0.29933395981788635
10047.0,15.588163375854492,16.92262077331543,0.6511328816413879,-13.24561882019043,-11.747196197509766,0.0025326425675302744,8.17431640625,0.29557180404663086,0.33043113350868225
10048.0,15.588372230529785,18.30605125427246,0.656495988368988,-12.144438743591309,-9.39516544342041,0.18315161764621735,8.180519104003906,0.18912579119205475,0.3046855032444
10049.0,15.588591575622559,19.74003791809082,0.6630381941795349,-11.099428176879883,-7.061097145080566,-0.007890928536653519,8.213988304138184,0.16144369542598724,0.2292516529560089
10050.0,15.588814735412598,21.22642707824707,0.6707684993743896,-10.037654876708984,-4.9383544921875,0.18659760057926178,8.076839447021484,0.204880952835083,0.31521978974342346
10051.0,15.589041709899902,22.767127990722656,0.6796765327453613,-9.029396057128906,-2.762246608734131,-0.13735820353031158,7.879764080047607,0.170898899435997,0.2524930238723755
10052.0,15.589269638061523,24.364124298095703,0.689724862575531,-7.711585521697998,-0.6744500398635864,0.21912981569766998,7.6300458908081055,0.1369572877883911,0.3467373549938202
10053.0,15.589491844177246,26.01948356628418,0.7008423209190369,-6.588836193084717,1.4759465456008911,-0.2230128049850464,7.351573944091797,0.12663768231868744,0.17919684946537018
10054.0,15.589715957641602,27.735319137573242,0.7129294872283936,-5.20109224319458,3.4990503787994385,0.3216242790222168,7.074578285217285,0.13275979459285736,0.3171074688434601
10055.0,15.58994197845459,29.513851165771484,0.7258595824241638,-4.20461893081665,5.30259370803833,-0.28311899304389954,6.768502235412598,0.10340936481952667,0.30736657977104187
10056.0,15.590166091918945,31.357362747192383,0.7394737601280212,-2.7605130672454834,7.300894737243652,0.39297276735305786,6.496875286102295,0.11032355576753616,0.46230489015579224
10057.0,15.590394973754883,33.268245697021484,0.753555178642273,-1.7701319456100464,9.312443733215332,-0.335785835981369,6.108368396759033,0.13563071191310883,0.17984461784362793
10058.0,15.59062385559082,35.24894714355469,0.767838716506958,-0.17236843705177307,11.315040588378906,0.4708717167377472,5.769172191619873,0.10823560506105423,0.4551231265068054
10059.0,15.590851783752441,37.302032470703125,0.7819921970367432,0.843507707118988,13.363572120666504,-0.4194624125957489,5.238971710205078,0.07030253857374191,0.1818012297153473
10060.0,15.591071128845215,39.43014907836914,0.7956153154373169,2.6014223098754883,15.77674674987793,0.5896766185760498,4.750852584838867,0.006688263267278671,0.5067673325538635
10061.0,15.591285705566406,41.636051177978516,0.8081808686256409,3.6979479789733887,18.288267135620117,-0.7094947099685669,4.253052234649658,-0.051748570054769516,0.08743531256914139
10062.0,15.591492652893066,43.92259979248047,0.8190460801124573,5.859414100646973,21.309776306152344,0.7804657220840454,3.662994861602783,-0.059187620878219604,0.6071688532829285
10063.0,15.591695785522461,46.29273986816406,0.8273597359657288,6.962913990020752,24.527006149291992,-0.9337562918663025,2.9857428073883057,-0.11457417905330658,0.12881384789943695
10064.0,15.591889381408691,48.749542236328125,0.832039475440979,9.475288391113281,28.565336227416992,0.9626460075378418,2.302591562271118,-0.09586454182863235,0.5746546387672424
10241.0,16.921430587768555,5.506119251251221,0.643616259098053,-16.11870574951172,-24.626264572143555,1.0675700902938843,2.9037060737609863,0.44289276003837585,0.1650664359331131
10242.0,16.921493530273438,6.472426891326904,0.6427940726280212,-15.957365989685059,-24.925321578979492,0.019540779292583466,3.7033939361572266,0.5617203712463379,0.1612103134393692
10243.0,16.92157554626465,7.47402286529541,0.6421191096305847,-15.646196365356445,-24.188383102416992,0.06785549968481064,4.5896220207214355,0.6331877112388611,0.17743025720119476
10244.0,16.921674728393555,8.512207984924316,0.6416995525360107,-15.233369827270508,-23.131309509277344,0.03669998049736023,5.251014232635498,0.5227919220924377,0.2327030748128891
10245.0,16.92179298400879,9.58831787109375,0.6416504383087158,-14.865922927856445,-22.24138069152832,-0.33363550901412964,5.969566822052002,0.47027894854545593,0.2030571848154068
10246.0,16.92192840576172,10.703741073608398,0.6420950889587402,-14.367605209350586,-20.7228946685791,0.009752779267728329,6.495837688446045,0.46237942576408386,0.23023520410060883
10247.0,16.922075271606445,11.859917640686035,0.643153727054596,-13.865991592407227,-19.12385368347168,-0.1004103273153305,7.062335014343262,0.37357643246650696,0.179955393075943
10248.0,16.922243118286133,13.058341026306152,0.6449390053749084,-13.259241104125977,-17.16651153564453,-0.02135722152888775,7.589066505432129,0.40174442529678345,0.25814124941825867
10249.0,16.922426223754883,14.300554275512695,0.6475563049316406,-12.717873573303223,-15.29227352142334,-0.14345580339431763,7.845635414123535,0.35379087924957275,0.23246058821678162
10250.0,16.92262077331543,15.588164329528809,0.6510942578315735,-11.844460487365723,-13.130921363830566,0.05684715881943703,8.128387451171875,0.21591922640800476,0.2746821641921997
10251.0,16.922819137573242,16.922821044921875,0.6556232571601868,-11.218674659729004,-11.074556350708008,-0.17414595186710358,8.297585487365723,0.236671581864357,0.21236726641654968
10252.0,16.923032760620117,18.306257247924805,0.6612001061439514,-10.298569679260254,-8.925254821777344,0.02818167582154274,8.44591999053955,0.2251562923192978,0.26116177439689636
10253.0,16.923255920410156,19.740236282348633,0.6678564548492432,-9.448880195617676,-6.766470909118652,-0.203954815864563,8.425490379333496,0.1821855902671814,0.20922401547431946
10254.0,16.923486709594727,21.226621627807617,0.6756042838096619,-8.49233341217041,-4.73441743850708,0.04794541001319885,8.360291481018066,0.14475859701633453,0.32376912236213684
10255.0,16.92371940612793,22.767318725585938,0.6844393014907837,-7.573044776916504,-2.6342203617095947,-0.1974090188741684,8.198138236999512,0.09662585705518723,0.2626302242279053
10256.0,16.9239559173584,24.364307403564453,0.6943297982215881,-6.409412860870361,-0.588221549987793,0.1058906763792038,7.973410606384277,0.13904665410518646,0.3419836759567261
10257.0,16.924192428588867,26.019655227661133,0.7052121162414551,-5.478637218475342,1.4828070402145386,-0.21081866323947906,7.639458656311035,0.17921918630599976,0.17580105364322662
10258.0,16.92442512512207,27.73548698425293,0.716995120048523,-4.307317733764648,3.3621175289154053,0.2741203010082245,7.3600544929504395,0.13504518568515778,0.3301868140697479
10259.0,16.924659729003906,29.514007568359375,0.7295607924461365,-3.4753146171569824,5.057252407073975,-0.38224685192108154,7.064955711364746,0.09741026908159256,0.21528562903404236
10260.0,16.924898147583008,31.357515335083008,0.742761492729187,-2.1052706241607666,7.080504894256592,0.32218649983406067,6.7602620124816895,0.11317067593336105,0.4063592255115509
10261.0,16.925138473510742,33.26838302612305,0.7563904523849487,-1.217445731163025,8.978714942932129,-0.4401741325855255,6.418488025665283,0.04906332492828369,0.15728549659252167
10262.0,16.925382614135742,35.249080657958984,0.7701952457427979,0.2815001308917999,10.973593711853027,0.36422544717788696,6.0833353996276855,-0.0011124364100396633,0.45818060636520386
10263.0,16.92561912536621,37.302154541015625,0.7838587760925293,1.1555238962173462,12.927353858947754,-0.5363700985908508,5.526860237121582,0.01921689510345459,0.11903868615627289
10264.0,16.92584800720215,39.43025588989258,0.7969993948936462,2.83255672454834,15.287186622619629,0.5628634095191956,5.046752452850342,-0.007763043511658907,0.5043362975120544
10265.0,16.92607307434082,41.63614273071289,0.809111475944519,3.7469446659088135,17.6964111328125,-0.6777409911155701,4.517803192138672,-0.027499910444021225,0.08038713783025742
10266.0,16.926298141479492,43.92266845703125,0.8195781111717224,5.759158611297607,20.574846267700195,0.7570246458053589,3.9032480716705322,-0.03509807586669922,0.5439106822013855
10267.0,16.926511764526367,46.29278564453125,0.8275834321975708,6.913338661193848,23.754535675048828,-0.7795596122741699,3.1625866889953613,-0.10891599953174591,0.07253379374742508
10268.0,16.926713943481445,48.74956512451172,0.832088053226471,9.226527214050293,27.59140396118164,0.968504786491394,2.4185616970062256,-0.09183746576309204,0.54697585105896
10445.0,18.304872512817383,5.506198883056641,0.6442299485206604,-12.40240478515625,-22.776262283325195,-0.8876462578773499,3.2176036834716797,0.6821361184120178,0.031824056059122086
10446.0,18.30493927001953,6.4725260734558105,0.6439881324768066,-12.25350284576416,-22.23950958251953,-0.21448610723018646,3.8701703548431396,0.594194233417511,0.10660380125045776
10447.0,18.305021286010742,7.474143981933594,0.643922746181488,-11.995170593261719,-21.625328063964844,-0.05018067732453346,4.514293193817139,0.4864751994609833,0.11315883696079254
10448.0,18.305116653442383,8.512347221374512,0.6441240906715393,-11.695972442626953,-20.806291580200195,0.23799358308315277,5.322327136993408,0.4463624656200409,0.16492615640163422
10449.0,18.30523681640625,9.58847427368164,0.6446864604949951,-11.657891273498535,-19.94844627380371,0.04961371794342995,5.990588188171387,0.5342668890953064,0.13522781431674957
10450.0,18.30537223815918,10.703911781311035,0.6457119584083557,-11.275620460510254,-18.736330032348633,0.1480753868818283,6.546881675720215,0.49691179394721985,0.08886779099702835
10451.0,18.305517196655273,11.860103607177734,0.6473028659820557,-10.910707473754883,-17.187334060668945,0.13494692742824554,7.080018043518066,0.38546350598335266,0.07979493588209152
10452.0,18.305679321289062,13.058539390563965,0.64955735206604,-10.56887149810791,-15.77195930480957,0.06921476125717163,7.4928436279296875,0.44013237953186035,0.23512700200080872
10453.0,18.305856704711914,14.300760269165039,0.6525669693946838,-10.072066307067871,-13.94864559173584,0.039978381246328354,7.884033679962158,0.3804665207862854,0.24655795097351074
10454.0,18.306045532226562,15.588373184204102,0.6564109325408936,-9.595195770263672,-12.120665550231934,0.10341088473796844,8.19982624053955,0.2679491937160492,0.2898068130016327
10455.0,18.306249618530273,16.92303466796875,0.6611544489860535,-9.059996604919434,-10.230545997619629,-0.010665440000593662,8.39038372039795,0.27781012654304504,0.2340015172958374
10456.0,18.30646514892578,18.306467056274414,0.6668531894683838,-8.294814109802246,-8.296032905578613,0.29327622056007385,8.556221961975098,0.29570332169532776,0.32056036591529846
10457.0,18.30668830871582,19.740447998046875,0.6735400557518005,-7.599091529846191,-6.156386852264404,0.0909929871559143,8.568221092224121,0.3051711618900299,0.20832441747188568
10458.0,18.306922912597656,21.22682762145996,0.6812293529510498,-6.865742206573486,-4.385831832885742,0.27270448207855225,8.528578758239746,0.24032603204250336,0.29536619782447815
10459.0,18.307159423828125,22.767518997192383,0.6899195313453674,-6.175723552703857,-2.41707444190979,-0.016363708302378654,8.425293922424316,0.15122783184051514,0.2063702493906021
10460.0,18.307401657104492,24.364503860473633,0.6995834708213806,-5.240699291229248,-0.45108431577682495,0.2484685331583023,8.241677284240723,0.16786251962184906,0.3059275150299072
10461.0,18.307645797729492,26.019840240478516,0.7101640105247498,-4.4461989402771,1.4313364028930664,-0.10504548251628876,7.924752235412598,0.16679862141609192,0.21992625296115875
10462.0,18.307889938354492,27.735668182373047,0.7215778827667236,-3.3134005069732666,3.3117620944976807,0.3861353099346161,7.680037498474121,0.12466680258512497,0.32446956634521484
10463.0,18.308134078979492,29.514177322387695,0.7337159514427185,-2.6537668704986572,4.90898323059082,-0.2598682940006256,7.39369535446167,0.13527654111385345,0.10304093360900879
10464.0,18.308380126953125,31.35767936706543,0.7464401721954346,-1.4895316362380981,6.854812145233154,0.36152714490890503,7.0601725578308105,0.11085094511508942,0.35554224252700806
10465.0,18.308629989624023,33.26853561401367,0.7595548033714294,-0.7037505507469177,8.701752662658691,-0.3256869614124298,6.752974987030029,0.038845013827085495,0.17376650869846344
10466.0,18.30888557434082,35.24922180175781,0.7728204131126404,0.6579000949859619,10.660260200500488,0.4816300570964813,6.38247013092041,0.029299650341272354,0.47187188267707825
10467.0,18.309133529663086,37.30228805541992,0.7859358191490173,1.346577525138855,12.46035099029541,-0.5101434588432312,5.802467346191406,0.018129033967852592,0.11813997477293015
10468.0,18.30937385559082,39.43037796020508,0.7985390424728394,2.966348171234131,14.741555213928223,0.5646814703941345,5.323794841766357,-0.008986563421785831,0.5034773945808411
10469.0,18.309614181518555,41.63624954223633,0.8101468682289124,3.858705759048462,17.066774368286133,-0.6175687313079834,4.743462085723877,-0.01411732379347086,0.07176404446363449
10470.0,18.309846878051758,43.92274475097656,0.8201708197593689,5.697388172149658,19.780988693237305,0.7007131576538086,4.138429641723633,-0.02270655520260334,0.5184672474861145
10471.0,18.31007194519043,46.29283905029297,0.8278327584266663,6.704728126525879,22.787752151489258,-0.8248729705810547,3.3470802307128906,-0.09894315898418427,0.027374442666769028
10472.0,18.310285568237305,48.749576568603516,0.8321419358253479,8.842129707336426,26.419614791870117,0.8445419669151306,2.5214316844940186,-0.08889288455247879,0.531028687953949
10649.0,19.738889694213867,5.506287574768066,0.64729243516922,-8.75235652923584,-19.736963272094727,0.7944687604904175,3.225856304168701,0.32386744022369385,-0.016659440472722054
10650.0,19.73895263671875,6.472632884979248,0.6474772095680237,-8.825469017028809,-19.77796745300293,0.12808464467525482,3.9129910469055176,0.40259793400764465,0.009184245020151138
10651.0,19.73903465270996,7.474269390106201,0.6478663086891174,-8.743584632873535,-19.35539436340332,0.04859268292784691,4.513326644897461,0.4850258529186249,0.1469004601240158
10652.0,19.739133834838867,8.512490272521973,0.6485314965248108,-8.678860664367676,-18.697166442871094,-0.15552200376987457,5.170321941375732,0.43551257252693176,0.08176762610673904
10653.0,19.73924446105957,9.588634490966797,0.649550199508667,-8.543749809265137,-17.915464401245117,-0.2717253267765045,5.842884540557861,0.39354249835014343,0.056044481694698334
10654.0,19.7393741607666,10.704090118408203,0.6510071754455566,-8.34326457977295,-16.850873947143555,-0.051592253148555756,6.38243293762207,0.2694358825683594,0.0729244276881218
10655.0,19.73951530456543,11.860296249389648,0.6529900431632996,-8.170182228088379,-15.681970596313477,-0.20804551243782043,6.923581123352051,0.2616339921951294,0.1632061004638672
10656.0,19.739675521850586,13.05873966217041,0.655583381652832,-7.762626647949219,-14.190797805786133,0.04240342974662781,7.456488609313965,0.2512646019458771,0.27764078974723816
10657.0,19.73984718322754,14.300971031188965,0.6588642597198486,-7.540905952453613,-12.784430503845215,-0.19575227797031403,7.811802864074707,0.25521019101142883,0.21781262755393982
10658.0,19.740034103393555,15.588590621948242,0.6629027724266052,-7.079643249511719,-11.076810836791992,-0.0210761409252882,8.09481143951416,0.3317103683948517,0.220810666680336
10659.0,19.740232467651367,16.923254013061523,0.6677608489990234,-6.722304821014404,-9.398375511169434,-0.166107177734375,8.359600067138672,0.3089641034603119,0.2040417492389679
10660.0,19.740446090698242,18.306686401367188,0.6734896302223206,-6.430981159210205,-7.765552997589111,-0.07139504700899124,8.578474998474121,0.2548257112503052,0.2678087651729584
10661.0,19.74066734313965,19.74066734313965,0.6801218390464783,-6.081315994262695,-5.945899486541748,-0.31804797053337097,8.71036148071289,0.1984478086233139,0.18972378969192505
10662.0,19.740903854370117,21.22704315185547,0.6876744627952576,-5.4002299308776855,-4.2776265144348145,-0.1258896440267563,8.653228759765625,0.15339265763759613,0.302516371011734
10663.0,19.741147994995117,22.767730712890625,0.6961454153060913,-4.696731090545654,-2.230924606323242,-0.2054312527179718,8.591097831726074,0.14696639776229858,0.187153160572052
10664.0,19.741392135620117,24.364713668823242,0.7055113315582275,-3.893592596054077,-0.3785898983478546,0.06495272368192673,8.431304931640625,0.11985917389392853,0.2891056537628174
10665.0,19.74163818359375,26.02004623413086,0.7157204151153564,-3.3553578853607178,1.3184260129928589,-0.4002470374107361,8.14367961883545,0.10795195400714874,0.20251785218715668
10666.0,19.74188995361328,27.735858917236328,0.7266973853111267,-2.4191932678222656,3.095266103744507,0.11989270150661469,7.929905414581299,0.13590075075626373,0.29148581624031067
10667.0,19.742143630981445,29.51436996459961,0.7383424043655396,-1.8320266008377075,4.682518005371094,-0.3603746294975281,7.634032249450684,0.10638953745365143,0.09967415779829025
10668.0,19.742399215698242,31.357852935791016,0.7505255341529846,-0.7646192312240601,6.57234525680542,0.2194523811340332,7.304316520690918,0.04069584980607033,0.356136679649353
10669.0,19.74265480041504,33.268707275390625,0.763062059879303,-0.12176191061735153,8.347147941589355,-0.41888710856437683,7.007758617401123,0.0516674779355526,0.19086621701717377
10670.0,19.742918014526367,35.2493782043457,0.7757256031036377,1.0156289339065552,10.233695030212402,0.4391789436340332,6.587284564971924,0.08793048560619354,0.4020075500011444
10671.0,19.74317741394043,37.30242919921875,0.7882324457168579,1.6348124742507935,11.99849796295166,-0.45314842462539673,6.0262298583984375,0.0488169863820076,0.08329809457063675
10672.0,19.743425369262695,39.43050765991211,0.8002405762672424,3.140159845352173,14.177504539489746,0.5457251667976379,5.557602405548096,-0.021607981994748116,0.502846896648407
10673.0,19.743675231933594,41.636356353759766,0.8112907409667969,3.8182218074798584,16.28380012512207,-0.666193962097168,4.929243087768555,-0.07254039496183395,0.06998711079359055
10674.0,19.743921279907227,43.922828674316406,0.8208259344100952,5.572201728820801,18.92757225036621,0.6749697923660278,4.342068195343018,-0.06587804108858109,0.5218845009803772
10675.0,19.74415397644043,46.29289245605469,0.8281086683273315,6.532259941101074,21.79668426513672,-0.7230272889137268,3.4870355129241943,-0.10462592542171478,0.06897136569023132
10676.0,19.74437141418457,48.74959945678711,0.8322018980979919,8.466812133789062,25.180896759033203,0.8179045915603638,2.592317581176758,-0.08701764792203903,0.5384976267814636
10853.0,21.225317001342773,5.506381988525391,0.6526415348052979,-6.133988380432129,-18.130277633666992,-0.5676807761192322,3.2205300331115723,0.5391806960105896,0.010738582350313663
10854.0,21.225379943847656,6.472743034362793,0.6531362533569336,-6.013428211212158,-17.671403884887695,-0.08399805426597595,3.815568685531616,0.48485320806503296,0.12117523699998856
10855.0,21.22545623779297,7.474396228790283,0.6538514494895935,-6.000622749328613,-17.28996467590332,0.04590462148189545,4.427383899688721,0.42275121808052063,0.06917724758386612
10856.0,21.225549697875977,8.512635231018066,0.6548483371734619,-5.849898815155029,-16.49043083190918,0.1294889599084854,5.152515888214111,0.3965710401535034,0.07255055755376816
10857.0,21.22566032409668,9.588797569274902,0.6561920642852783,-5.779026031494141,-15.780099868774414,0.26989367604255676,5.74116849899292,0.39929917454719543,0.13804389536380768
10858.0,21.22578239440918,10.704267501831055,0.6579511761665344,-5.657607555389404,-15.020767211914062,0.19586525857448578,6.2631449699401855,0.46090051531791687,0.16181492805480957
10859.0,21.225919723510742,11.86048698425293,0.660200297832489,-5.496104717254639,-13.881041526794434,0.11104755848646164,6.756016731262207,0.46914952993392944,0.15984128415584564
10860.0,21.226072311401367,13.058942794799805,0.6630103588104248,-5.325614929199219,-12.686333656311035,0.2692220211029053,7.2056355476379395,0.3253347873687744,0.18554578721523285
10861.0,21.226240158081055,14.301183700561523,0.6664494872093201,-5.284820556640625,-11.470592498779297,-0.016772808507084846,7.632564067840576,0.31339266896247864,0.1617049127817154
10862.0,21.226423263549805,15.588808059692383,0.6705790162086487,-4.929006099700928,-9.954642295837402,0.2839900553226471,8.000182151794434,0.33403271436691284,0.1439071148633957
10863.0,21.22661781311035,16.923477172851562,0.6754550337791443,-4.7153000831604,-8.404175758361816,0.1107330471277237,8.328164100646973,0.2692880630493164,0.14323878288269043
10864.0,21.226821899414062,18.306913375854492,0.6811256408691406,-4.390305042266846,-7.0253682136535645,0.18972636759281158,8.443131446838379,0.2680443227291107,0.20056495070457458
10865.0,21.2270450592041,19.74089241027832,0.6876211762428284,-3.9316296577453613,-5.187280178070068,0.17212389409542084,8.65977954864502,0.20421957969665527,0.1896684467792511
10866.0,21.227277755737305,21.227270126342773,0.6949585676193237,-3.5622599124908447,-3.6454501152038574,0.25458192825317383,8.69522762298584,0.17448844015598297,0.28467294573783875
10867.0,21.227521896362305,22.767955780029297,0.7031347751617432,-3.1578638553619385,-1.8438435792922974,0.0722159668803215,8.697535514831543,0.29140767455101013,0.18526874482631683
10868.0,21.22776985168457,24.364931106567383,0.7121300101280212,-2.5968568325042725,-0.22927191853523254,0.2165985405445099,8.592772483825684,0.2903245985507965,0.2762884199619293
10869.0,21.228025436401367,26.020261764526367,0.721896231174469,-2.014051675796509,1.5484999418258667,-0.014409376308321953,8.308741569519043,0.2008981704711914,0.15536701679229736
10870.0,21.22827911376953,27.736068725585938,0.7323674559593201,-1.3043497800827026,3.097449779510498,0.4111899733543396,8.096749305725098,0.17412780225276947,0.2847110331058502
10871.0,21.228532791137695,29.514568328857422,0.7434529066085815,-0.8857272863388062,4.61509895324707,-0.13493943214416504,7.8158183097839355,0.17091554403305054,0.14565233886241913
10872.0,21.228797912597656,31.35804557800293,0.7550281286239624,0.036047715693712234,6.412242412567139,0.45976540446281433,7.487731456756592,0.17613503336906433,0.3695125877857208
10873.0,21.229063034057617,33.26888656616211,0.7669198513031006,0.46006202697753906,8.016490936279297,-0.333935022354126,7.184902667999268,0.12283545732498169,0.19052985310554504
10874.0,21.22933006286621,35.24954605102539,0.7789168953895569,1.4458085298538208,9.779067993164062,0.3776143789291382,6.7453203201293945,0.04138479754328728,0.36094826459884644
10875.0,21.229597091674805,37.302581787109375,0.7907546758651733,2.0132064819335938,11.513550758361816,-0.40651676058769226,6.224238872528076,0.03782493248581886,0.04779363051056862
10876.0,21.2298583984375,39.43064498901367,0.8021087050437927,3.3470747470855713,13.586386680603027,0.5443697571754456,5.712430953979492,0.04290803521871567,0.45543596148490906
10877.0,21.23011589050293,41.636474609375,0.8125462532043457,3.966808557510376,15.590554237365723,-0.5237586498260498,5.047657489776611,-0.05089319497346878,0.08070003241300583
10878.0,21.230363845825195,43.92292022705078,0.8215450048446655,5.5015788078308105,18.02165412902832,0.6417893767356873,4.487560272216797,-0.1025925949215889,0.5076779723167419
10879.0,21.230607986450195,46.292945861816406,0.8284110426902771,6.267915725708008,20.66606330871582,-0.7031665444374084,3.5671849250793457,-0.10144148766994476,0.08301439136266708
10880.0,21.2308349609375,48.74961853027344,0.8322673439979553,8.076363563537598,23.903099060058594,0.8487429022789001,2.633570909500122,-0.0642629936337471,0.5103968977928162
11057.0,22.76606559753418,5.506477355957031,0.6601291298866272,-3.2222139835357666,-15.698790550231934,0.4123135209083557,3.2584195137023926,0.41061142086982727,0.031534966081380844
11058.0,22.766124725341797,6.4728546142578125,0.6608319878578186,-3.360513210296631,-15.588316917419434,-0.038894060999155045,3.7169432640075684,0.3149751126766205,0.0834541767835617
11059.0,22.766193389892578,7.474525451660156,0.6617671847343445,-3.3477530479431152,-15.234910011291504,-0.019138095900416374,4.381378650665283,0.210936039686203,0.09310467541217804
11060.0,22.76628303527832,8.51278018951416,0.6629838347434998,-3.323762893676758,-14.69832706451416,-0.20739313960075378,4.949902057647705,0.25843504071235657,0.09015024453401566
11061.0,22.766389846801758,9.588957786560059,0.6645376682281494,-3.3566324710845947,-14.250398635864258,-0.3772803544998169,5.537374496459961,0.21474787592887878,0.12763185799121857
11062.0,22.766508102416992,10.70444393157959,0.666485607624054,-3.165759801864624,-13.321183204650879,-0.120639868080616,6.108652114868164,0.2145003229379654,0.15196533501148224
11063.0,22.76663589477539,11.860675811767578,0.6688874959945679,-3.1674957275390625,-12.519591331481934,-0.34093979001045227,6.593567848205566,0.2079409509897232,0.09585656225681305
11064.0,22.76678466796875,13.059144020080566,0.6718065738677979,-2.961826801300049,-11.404181480407715,-0.13996301591396332,7.077807903289795,0.12965844571590424,0.17073789238929749
11065.0,22.766950607299805,14.301398277282715,0.6753016710281372,-2.859485387802124,-10.170891761779785,-0.2568933069705963,7.501177787780762,0.2021554708480835,0.18753689527511597
11066.0,22.767122268676758,15.589033126831055,0.6794261336326599,-2.785438299179077,-9.079974174499512,-0.15416263043880463,7.787349700927734,0.261345237493515,0.20514485239982605
11067.0,22.767311096191406,16.9237060546875,0.6842308640480042,-2.7010157108306885,-7.700534343719482,-0.21407172083854675,8.06113338470459,0.23868024349212646,0.16949667036533356
11068.0,22.767515182495117,18.307144165039062,0.6897582411766052,-2.5991926193237305,-6.4650349617004395,-0.17097443342208862,8.306960105895996,0.23054887354373932,0.19007684290409088
11069.0,22.767732620239258,19.741127014160156,0.6960373520851135,-2.384871482849121,-4.75884485244751,-0.23706114292144775,8.589232444763184,0.20466949045658112,0.18027377128601074
11070.0,22.767963409423828,21.227506637573242,0.7030816674232483,-2.0562899112701416,-3.2799112796783447,-0.09203451871871948,8.713105201721191,0.19178831577301025,0.23557093739509583
11071.0,22.768205642700195,22.7681884765625,0.7108874320983887,-1.6546050310134888,-1.691555142402649,-0.24482189118862152,8.682969093322754,0.20101317763328552,0.15269328653812408
11072.0,22.76845932006836,24.36515998840332,0.7194375991821289,-1.1630735397338867,-0.07496896386146545,0.025760773569345474,8.621703147888184,0.17736901342868805,0.21893300116062164
11073.0,22.768709182739258,26.02048110961914,0.7286906242370605,-0.9065151810646057,1.439605474472046,-0.3155357539653778,8.359691619873047,0.11679059267044067,0.12745463848114014
11074.0,22.768966674804688,27.736284255981445,0.7385883927345276,-0.34181949496269226,2.869253396987915,0.10025042295455933,8.178940773010254,0.08841710537672043,0.3005158603191376
11075.0,22.769227981567383,29.514772415161133,0.7490467429161072,0.020570755004882812,4.3852620124816895,-0.3363349735736847,7.917743682861328,0.11589151620864868,0.15963114798069
11076.0,22.76949691772461,31.358245849609375,0.759946882724762,0.8275555372238159,6.089229106903076,0.26782500743865967,7.599155902862549,0.11438335478305817,0.34107735753059387
11077.0,22.76976203918457,33.269073486328125,0.7711276412010193,1.195214867591858,7.673736095428467,-0.3731382489204407,7.293201923370361,0.10161416977643967,0.14206431806087494
11078.0,22.770036697387695,35.24972152709961,0.782394289970398,2.009870767593384,9.364777565002441,0.3551815152168274,6.843006610870361,0.06408894062042236,0.35061508417129517
11079.0,22.770307540893555,37.3027458190918,0.7935012578964233,2.3844034671783447,10.957343101501465,-0.4097251892089844,6.370532512664795,0.03205164149403572,0.07281568646430969
11080.0,22.770572662353516,39.4307861328125,0.804142415523529,3.487734079360962,12.879262924194336,0.4021773338317871,5.850001811981201,0.07288521528244019,0.4102924168109894
11081.0,22.770835876464844,41.6365966796875,0.813913881778717,4.014416217803955,14.776466369628906,-0.5400823950767517,5.169857501983643,0.003448499832302332,0.10863791406154633
11082.0,22.771095275878906,43.92301940917969,0.8223294615745544,5.350909233093262,17.018203735351562,0.5358231663703918,4.619443416595459,-0.08013837784528732,0.45374825596809387
11083.0,22.771347045898438,46.29302215576172,0.828741192817688,5.948225975036621,19.44121742248535,-0.75533527135849,3.6762986183166504,-0.11683649569749832,0.03448684513568878
11084.0,22.771575927734375,48.749637603759766,0.8323391675949097,7.615410327911377,22.4871826171875,0.7795842885971069,2.6968801021575928,-0.08511442691087723,0.4606170952320099
11260.0,24.363059997558594,4.574230670928955,0.6689513921737671,-0.7878026366233826,-14.134461402893066,0.07615046948194504,2.5140626430511475,0.2982091009616852,-0.07816464453935623
11261.0,24.363109588623047,5.506574630737305,0.6695846915245056,-0.854336142539978,-14.075066566467285,-0.30342888832092285,3.0815656185150146,0.4565944969654083,-0.010995639488101006
11262.0,24.363161087036133,6.472968101501465,0.6704179048538208,-0.6817296743392944,-13.486618995666504,0.06541833281517029,3.56014084815979,0.44747593998908997,0.12305664271116257
11263.0,24.363235473632812,7.474654674530029,0.6714863181114197,-0.6475445628166199,-13.217041969299316,0.10120870172977448,4.191615581512451,0.3919724225997925,0.09607041627168655
11264.0,24.36331558227539,8.512925148010254,0.6728296279907227,-0.6474280953407288,-12.744970321655273,0.18172289431095123,4.763988971710205,0.38028934597969055,0.021253617480397224
11265.0,24.363418579101562,9.589118003845215,0.6744949817657471,-0.6036213040351868,-12.030135154724121,0.3860807716846466,5.316240310668945,0.32503068447113037,0.012361428700387478
11266.0,24.363529205322266,10.704619407653809,0.6765319108963013,-0.7372987270355225,-11.491379737854004,0.25268909335136414,5.85491943359375,0.3448459804058075,0.13642120361328125
11267.0,24.363658905029297,11.86086368560791,0.6789900064468384,-0.8750442266464233,-10.85763168334961,0.09147357940673828,6.2853546142578125,0.38213685154914856,0.07853341847658157
11268.0,24.363798141479492,13.059347152709961,0.6819237470626831,-0.8000425696372986,-9.918933868408203,0.29105401039123535,6.715682029724121,0.4059517979621887,0.15887178480625153
11269.0,24.36395263671875,14.301607131958008,0.6853833198547363,-0.8392400145530701,-8.831012725830078,0.16765162348747253,7.109309673309326,0.4156336486339569,0.14017511904239655
11270.0,24.364120483398438,15.589250564575195,0.6894150972366333,-0.8686875700950623,-7.898036479949951,0.23813463747501373,7.488511085510254,0.3325645625591278,0.16056208312511444
11271.0,24.364301681518555,16.923933029174805,0.694064199924469,-0.8692731857299805,-6.70939302444458,0.060994211584329605,7.907973289489746,0.293518990278244,0.14341552555561066
11272.0,24.364500045776367,18.3073787689209,0.6993679404258728,-0.6766847968101501,-5.408265113830566,0.22013020515441895,8.235594749450684,0.30509161949157715,0.1600370854139328
11273.0,24.364713668823242,19.741365432739258,0.7053515911102295,-0.47540849447250366,-3.9917867183685303,0.1481948047876358,8.459030151367188,0.2595817744731903,0.15028677880764008
11274.0,24.36494255065918,21.22774314880371,0.7120251059532166,-0.2823040783405304,-2.6234524250030518,0.299543172121048,8.593354225158691,0.201259046792984,0.2221597582101822
11275.0,24.36518096923828,22.768428802490234,0.7193847298622131,-0.28549763560295105,-1.33649742603302,-0.030723081901669502,8.616620063781738,0.17916415631771088,0.16241519153118134
11276.0,24.36543083190918,24.365400314331055,0.7274179458618164,0.0452117882668972,0.20858553051948547,0.2960628271102905,8.574974060058594,0.20523832738399506,0.21385382115840912
11277.0,24.365684509277344,26.020719528198242,0.7360910773277283,0.2628515958786011,1.5474493503570557,-0.04134635999798775,8.409316062927246,0.23869475722312927,0.13131083548069
11278.0,24.365938186645508,27.736513137817383,0.7453495264053345,0.8107355833053589,2.930629253387451,0.3569697141647339,8.218494415283203,0.2515714466571808,0.2942602336406708
11279.0,24.366199493408203,29.514997482299805,0.7551127076148987,0.9846910238265991,4.334415912628174,-0.1016039326786995,7.984069347381592,0.22536766529083252,0.12886877357959747
11280.0,24.366470336914062,31.35845947265625,0.7652711272239685,1.5346214771270752,5.8345417976379395,0.2547647953033447,7.727875232696533,0.14430604875087738,0.2482595145702362
11281.0,24.366743087768555,33.269283294677734,0.7756766676902771,1.7740801572799683,7.307922840118408,-0.2939768135547638,7.413074016571045,0.12753842771053314,0.07137518376111984
11282.0,24.36701774597168,35.24991226196289,0.7861514091491699,2.4829256534576416,8.911075592041016,0.4093368351459503,6.970698356628418,0.13667358458042145,0.32782265543937683
11283.0,24.367292404174805,37.302921295166016,0.7964674234390259,2.801633358001709,10.417397499084473,-0.3117257356643677,6.521100044250488,0.08737395703792572,0.09062045067548752
11284.0,24.367565155029297,39.43094253540039,0.8063377737998962,3.743095874786377,12.254456520080566,0.5043403506278992,5.974686145782471,0.05268014222383499,0.3582145869731903
11285.0,24.367828369140625,41.6367301940918,0.8153905868530273,4.076828479766846,13.938393592834473,-0.4629996120929718,5.295009613037109,-0.02889949455857277,0.10793091356754303
11286.0,24.36809539794922,43.92312240600586,0.8231768012046814,5.30239725112915,16.06633186340332,0.6265150904655457,4.72639799118042,-0.07376164942979813,0.3962290585041046
11287.0,24.368349075317383,46.293087005615234,0.829098105430603,5.754559516906738,18.27332878112793,-0.5772547721862793,3.734626531600952,-0.15077213943004608,0.008843042887747288
11288.0,24.368579864501953,48.74966812133789,0.8324164748191833,7.131690502166748,20.963401794433594,0.7198150157928467,2.723529815673828,-0.1296393722295761,0.44685858488082886
11465.0,26.01850700378418,5.506669044494629,0.6808266043663025,1.727681040763855,-11.99800968170166,0.16214627027511597,2.961719036102295,0.26686403155326843,-0.011019430123269558
11466.0,26.018558502197266,6.473076343536377,0.6817231178283691,1.753498911857605,-11.63100528717041,-0.04012453183531761,3.491091251373291,0.24917854368686676,0.06950902193784714
11467.0,26.01862907409668,7.474780559539795,0.6828507781028748,1.6255253553390503,-11.487655639648438,-0.2395523637533188,4.024158000946045,0.2928992807865143,0.12198012322187424
11468.0,26.018709182739258,8.513066291809082,0.6842435598373413,1.6328160762786865,-11.051263809204102,-0.12448977679014206,4.554199695587158,0.26828768849372864,0.06940387934446335
11469.0,26.018800735473633,9.589275360107422,0.6859403252601624,1.6001347303390503,-10.50965404510498,-0.20940886437892914,5.096020221710205,0.23378205299377441,0.07938512414693832
11470.0,26.018909454345703,10.704790115356445,0.6879834532737732,1.4496338367462158,-10.146750450134277,-0.2907653748989105,5.593907356262207,0.15069210529327393,0.17944012582302094
11471.0,26.01902961730957,11.86104965209961,0.6904155015945435,1.4567679166793823,-9.401144981384277,-0.1972557157278061,6.0508880615234375,0.16361695528030396,0.05537432059645653
11472.0,26.019163131713867,13.059541702270508,0.6932815909385681,1.364586591720581,-8.654719352722168,-0.17713847756385803,6.5102009773254395,0.26093271374702454,0.09851551800966263
11473.0,26.01931381225586,14.301817893981934,0.696624755859375,1.2805123329162598,-7.717975616455078,-0.24812152981758118,6.933577537536621,0.2163381427526474,0.09812553226947784
11474.0,26.01947021484375,15.589470863342285,0.7004857063293457,1.3422729969024658,-6.687839984893799,-0.08798790723085403,7.309539794921875,0.1892494559288025,0.12280146777629852
11475.0,26.019641876220703,16.924163818359375,0.7049014568328857,1.1971725225448608,-5.806064128875732,-0.34402844309806824,7.643845558166504,0.24431899189949036,0.12324481457471848
11476.0,26.019834518432617,18.307615280151367,0.7099053859710693,1.3265557289123535,-4.593574047088623,-0.09500822424888611,7.979228973388672,0.23668023943901062,0.192246213555336
11477.0,26.02004623413086,19.741607666015625,0.7155181169509888,1.2902601957321167,-3.4531264305114746,-0.2986730635166168,8.256881713867188,0.16732917726039886,0.12695194780826569
11478.0,26.020265579223633,21.227989196777344,0.721747875213623,1.3758165836334229,-2.1380016803741455,-0.061817314475774765,8.450066566467285,0.12437551468610764,0.1725638210773468
11479.0,26.020503997802734,22.768674850463867,0.7285934090614319,1.2575494050979614,-0.9772566556930542,-0.3010697066783905,8.562610626220703,0.14047729969024658,0.14393530786037445
11480.0,26.020748138427734,24.365646362304688,0.73604416847229,1.3925824165344238,0.24570950865745544,-0.061936892569065094,8.496930122375488,0.15749026834964752,0.19301432371139526
11481.0,26.02099609375,26.020963668823242,0.7440714240074158,1.4495888948440552,1.4965027570724487,-0.31153205037117004,8.393909454345703,0.16331149637699127,0.08935248106718063
11482.0,26.02125358581543,27.736753463745117,0.7526241540908813,1.7488863468170166,2.8310623168945312,0.036399807780981064,8.18097972869873,0.14375974237918854,0.2723116874694824
11483.0,26.021516799926758,29.515230178833008,0.7616272568702698,1.9107697010040283,4.172234058380127,-0.2910554111003876,8.041816711425781,0.10650688409805298,0.12699078023433685
11484.0,26.021787643432617,31.358686447143555,0.7709798216819763,2.3985068798065186,5.598083972930908,0.12956678867340088,7.771236896514893,0.0786643996834755,0.19602824747562408
11485.0,26.02206039428711,33.26949691772461,0.7805481553077698,2.444378137588501,6.9050703048706055,-0.3164847195148468,7.402342796325684,0.039849910885095596,0.07969418168067932
11486.0,26.022327423095703,35.250118255615234,0.7901735305786133,2.955770969390869,8.367981910705566,0.2671312987804413,7.012577533721924,0.05334913358092308,0.3493063747882843
11487.0,26.02260971069336,37.303104400634766,0.7996417284011841,3.094181537628174,9.738965034484863,-0.47519901394844055,6.580090522766113,0.07831437140703201,0.07914822548627853
11488.0,26.022876739501953,39.43111038208008,0.8086872100830078,3.865354061126709,11.453598976135254,0.37972772121429443,6.0242156982421875,0.040525320917367935,0.30483344197273254
11489.0,26.023147583007812,41.63686752319336,0.8169717788696289,4.066810131072998,12.975831031799316,-0.5288520455360413,5.3632965087890625,-0.05897518992424011,0.04356807842850685
11490.0,26.02341079711914,43.92323303222656,0.8240841627120972,5.084004878997803,14.924867630004883,0.48914626240730286,4.778844356536865,-0.10712170600891113,0.35386037826538086
11491.0,26.023670196533203,46.293155670166016,0.8294802904129028,5.358043193817139,16.896377563476562,-0.6115164756774902,3.7603204250335693,-0.14379172027111053,0.0037139728665351868
11492.0,26.023906707763672,48.74969482421875,0.8324994444847107,6.561982154846191,19.32249641418457,0.6152840256690979,2.7420670986175537,-0.10542123764753342,0.4136037528514862
11669.0,27.734390258789062,5.506765365600586,0.6936507821083069,4.0159125328063965,-10.165888786315918,-0.1041845753788948,2.892453193664551,0.36757805943489075,-0.0221203975379467
11670.0,27.734439849853516,6.473187446594238,0.69455885887146,4.06309175491333,-9.775712013244629,0.23073385655879974,3.4076638221740723,0.3644113838672638,-0.027024028822779655
11671.0,27.734508514404297,7.474906921386719,0.6956872344017029,3.9529271125793457,-9.413811683654785,0.24170447885990143,3.9079957008361816,0.38816288113594055,0.010301263071596622
11672.0,27.73458480834961,8.51321029663086,0.6970663666725159,3.7902987003326416,-9.193449974060059,0.263473778963089,4.443462371826172,0.35628005862236023,0.08136120438575745
11673.0,27.73466682434082,9.589432716369629,0.6987282037734985,3.7000374794006348,-8.707459449768066,0.30205950140953064,4.948819637298584,0.3606450855731964,0.0711815282702446
11674.0,27.734771728515625,10.704963684082031,0.700707197189331,3.573763132095337,-8.378056526184082,0.3148883581161499,5.461968421936035,0.367792010307312,0.13199888169765472
11675.0,27.734882354736328,11.861237525939941,0.7030419707298279,3.582204818725586,-7.647620677947998,0.37719491124153137,5.914252758026123,0.4380304515361786,0.09159142524003983
11676.0,27.735013961791992,13.059746742248535,0.7057684659957886,3.4527742862701416,-7.0745649337768555,0.3106590509414673,6.291333198547363,0.4870772361755371,0.09334252774715424
11677.0,27.735151290893555,14.302031517028809,0.70892333984375,3.3172318935394287,-6.329462051391602,0.2148040384054184,6.701805591583252,0.3619205951690674,0.15165066719055176
11678.0,27.73530387878418,15.589696884155273,0.7125420570373535,3.2970693111419678,-5.441291332244873,0.27993348240852356,7.104141712188721,0.3195478618144989,0.20192287862300873
11679.0,27.7354736328125,16.924394607543945,0.7166538834571838,3.2395074367523193,-4.590198993682861,0.21316252648830414,7.457015514373779,0.34172865748405457,0.10589943826198578
11680.0,27.735658645629883,18.307859420776367,0.72128826379776,3.243696451187134,-3.5082812309265137,0.37535375356674194,7.816516399383545,0.3093794584274292,0.20526205003261566
11681.0,27.735857009887695,19.741857528686523,0.7264631986618042,2.97953462600708,-2.542457342147827,0.0795360878109932,8.07749080657959,0.3325617015361786,0.1175590232014656
11682.0,27.73607063293457,21.228242874145508,0.7321857213973999,2.997333526611328,-1.4267252683639526,0.34833547472953796,8.205757141113281,0.3331134617328644,0.12307804822921753
11683.0,27.736299514770508,22.76892852783203,0.7384558320045471,2.8294143676757812,-0.4385719895362854,0.07450588792562485,8.284224510192871,0.29242804646492004,0.08012443035840988
11684.0,27.736539840698242,24.365901947021484,0.7452639937400818,2.8813247680664062,0.6415074467658997,0.304331511259079,8.279732704162598,0.2311701476573944,0.13574646413326263
11685.0,27.736785888671875,26.021211624145508,0.7525848150253296,2.796048879623413,1.8241889476776123,0.03570788726210594,8.292479515075684,0.1858358085155487,0.10647481679916382
11686.0,27.73703384399414,27.737001419067383,0.760371744632721,2.9976694583892822,3.085542678833008,0.32371893525123596,8.143414497375488,0.21051110327243805,0.2687203586101532
11687.0,27.737302780151367,29.515472412109375,0.7685542702674866,2.9488368034362793,4.147150039672852,-0.04930941015481949,7.98298978805542,0.21122600138187408,0.0908343717455864
11688.0,27.737565994262695,31.35892105102539,0.7770421504974365,3.1138575077056885,5.369233131408691,0.29047825932502747,7.669749736785889,0.1624789834022522,0.18917685747146606
11689.0,27.737836837768555,33.26971435546875,0.7857195138931274,3.0636353492736816,6.553177356719971,-0.12474070489406586,7.314277172088623,0.11248206347227097,0.09986192733049393
11690.0,27.738101959228516,35.25032424926758,0.7944413423538208,3.439148187637329,7.894917011260986,0.3564855456352234,6.98628568649292,0.1018458679318428,0.3191682994365692
11691.0,27.73837661743164,37.30329895019531,0.803007185459137,3.4415745735168457,9.161032676696777,-0.2883254289627075,6.5226216316223145,0.08086434751749039,0.04066838324069977
11692.0,27.738649368286133,39.431278228759766,0.8111783266067505,4.0345683097839355,10.701772689819336,0.44199326634407043,5.981529712677002,0.04732561483979225,0.2911505401134491
11693.0,27.738922119140625,41.637020111083984,0.8186497092247009,4.204005718231201,12.112892150878906,-0.4081122577190399,5.38027286529541,0.00401530833914876,0.000722504744771868
11694.0,27.739185333251953,43.92334747314453,0.8250479102134705,5.053061008453369,13.861845970153809,0.509806215763092,4.77754545211792,-0.022579563781619072,0.33342888951301575
11695.0,27.73944091796875,46.293235778808594,0.8298879265785217,5.148628234863281,15.568549156188965,-0.4970683753490448,3.744893789291382,-0.10300272703170776,-0.012067786417901516
11696.0,27.739673614501953,48.74972152709961,0.832588255405426,6.088953018188477,17.678489685058594,0.621185839176178,2.7357521057128906,-0.10136394947767258,0.359720915555954
11873.0,29.512968063354492,5.506862640380859,0.7078384757041931,6.146441459655762,-8.260346412658691,-0.0547349713742733,2.828012228012085,0.239632710814476,0.1181713193655014
11874.0,29.513017654418945,6.473301410675049,0.7087161540985107,6.080073833465576,-8.23736572265625,-0.22859348356723785,3.265664577484131,0.29967549443244934,0.033235181123018265
11875.0,29.513076782226562,7.475035667419434,0.7097991704940796,6.065571308135986,-7.853885173797607,-0.3323195278644562,3.7063159942626953,0.2694073021411896,0.03200260177254677
11876.0,29.513151168823242,8.513352394104004,0.7111124396324158,5.974208831787109,-7.652760028839111,-0.3408316969871521,4.198345184326172,0.240394726395607,0.12527082860469818
11877.0,29.51323127746582,9.589592933654785,0.712682843208313,5.970695972442627,-7.244961738586426,-0.31397745013237,4.722274303436279,0.2377920001745224,0.015695909038186073
11878.0,29.51333236694336,10.705138206481934,0.7145398855209351,5.852746963500977,-6.864493370056152,-0.3515632450580597,5.193850994110107,0.22129736840724945,0.04609694331884384
11879.0,29.513431549072266,11.861428260803223,0.716715395450592,5.675438404083252,-6.37662410736084,-0.38037610054016113,5.629789352416992,0.2419903427362442,0.12149763107299805
11880.0,29.513553619384766,13.059950828552246,0.7192392945289612,5.513265609741211,-5.842191696166992,-0.3236963748931885,6.02436637878418,0.25392886996269226,0.0882265642285347
11881.0,29.513687133789062,14.302248001098633,0.7221424579620361,5.398292064666748,-5.176217555999756,-0.2751274108886719,6.468410015106201,0.17527639865875244,0.0846405103802681
11882.0,29.513835906982422,15.589926719665527,0.7254547476768494,5.249135494232178,-4.453437328338623,-0.22605325281620026,6.889239311218262,0.11710255593061447,0.12289030104875565
11883.0,29.513994216918945,16.924636840820312,0.7292007803916931,4.991330623626709,-3.7438912391662598,-0.36946403980255127,7.2427778244018555,0.16033579409122467,0.048227839171886444
11884.0,29.51417350769043,18.308107376098633,0.733405351638794,4.891305446624756,-2.8731656074523926,-0.23269997537136078,7.554114818572998,0.19609397649765015,0.13122425973415375
11885.0,29.51436996459961,19.742111206054688,0.7380842566490173,4.722123622894287,-1.9366339445114136,-0.34294649958610535,7.800357341766357,0.1562987118959427,0.11517668515443802
11886.0,29.514570236206055,21.22850227355957,0.7432432174682617,4.657209873199463,-0.9704827070236206,-0.03660338744521141,7.982542991638184,0.10593360662460327,0.16388143599033356
11887.0,29.514787673950195,22.769193649291992,0.7488831877708435,4.3009114265441895,-0.12516872584819794,-0.3387373089790344,8.130280494689941,0.1196061223745346,0.12457739561796188
11888.0,29.515016555786133,24.36616325378418,0.7549954056739807,4.223446369171143,0.8751572370529175,-0.09300027787685394,8.20607852935791,0.14406584203243256,0.16155220568180084
11889.0,29.515260696411133,26.021480560302734,0.7615571618080139,4.095646381378174,1.9313290119171143,-0.26413145661354065,8.155082702636719,0.119315505027771,0.11682755500078201
11890.0,29.515506744384766,27.737260818481445,0.7685250639915466,4.165420055389404,3.029341220855713,-0.06185520067811012,8.026867866516113,0.09486459940671921,0.1860980987548828
11891.0,29.515766143798828,29.515729904174805,0.775834321975708,3.9650840759277344,3.968860626220703,-0.3367013931274414,7.8160014152526855,0.10262245684862137,0.09278076142072678
11892.0,29.516023635864258,31.35916519165039,0.7834104299545288,4.023593425750732,5.069723606109619,0.06938796490430832,7.579147815704346,0.06850335747003555,0.1973130851984024
11893.0,29.516292572021484,33.269954681396484,0.7911514043807983,3.849976062774658,6.1236491203308105,-0.3652369976043701,7.220337390899658,0.037776198238134384,0.058443062007427216
11894.0,29.51655387878418,35.250545501708984,0.7989206910133362,4.014936447143555,7.345940113067627,0.1202142983675003,6.917934894561768,0.05195114016532898,0.23849822580814362
11895.0,29.51681900024414,37.303497314453125,0.8065375089645386,3.839885950088501,8.478320121765137,-0.3678114414215088,6.464648723602295,0.012520589865744114,-0.0038421826902776957
11896.0,29.51708984375,39.43145751953125,0.8137921690940857,4.199673175811768,9.857453346252441,0.2926989793777466,5.971892356872559,-0.0003709372249431908,0.27549517154693604
11897.0,29.51736068725586,41.63717269897461,0.8204097747802734,4.21708345413208,11.135946273803711,-0.39869043231010437,5.385741710662842,-0.017170609906315804,0.0134087223559618
11898.0,29.517623901367188,43.923465728759766,0.8260588049888611,4.774068832397461,12.634881973266602,0.37198832631111145,4.719817638397217,-0.05362653359770775,0.3036632239818573
11899.0,29.51786994934082,46.293312072753906,0.8303152322769165,4.745357990264893,14.085503578186035,-0.5435336232185364,3.7097039222717285,-0.15210413932800293,-0.03348022326827049
11900.0,29.518098831176758,48.749752044677734,0.8326815366744995,5.5357818603515625,15.911965370178223,0.5547104477882385,2.7019917964935303,-0.1292649358510971,0.3345208168029785
12076.0,31.35649299621582,4.574554920196533,0.7224921584129333,8.78879451751709,-6.302272319793701,0.34744536876678467,2.1623871326446533,0.4735035300254822,0.03130960091948509
12077.0,31.35653305053711,5.506959915161133,0.7231387495994568,8.638266563415527,-6.325446605682373,0.10257554799318314,2.6372973918914795,0.46696212887763977,0.1451428383588791
12078.0,31.35658073425293,6.473414421081543,0.7239531874656677,8.5556001663208,-6.084815502166748,0.3751499056816101,3.0858514308929443,0.48280760645866394,0.13683576881885529
12079.0,31.356632232666016,7.475162982940674,0.7249522805213928,8.394790649414062,-5.930037498474121,0.26641616225242615,3.540731191635132,0.47080159187316895,0.0460844412446022
12080.0,31.35670280456543,8.513497352600098,0.7261569499969482,8.39144515991211,-5.509059429168701,0.382034569978714,4.039321422576904,0.5355983376502991,0.11826426535844803
12081.0,31.356781005859375,9.589752197265625,0.7275905013084412,8.161629676818848,-5.297558307647705,0.33554792404174805,4.539754867553711,0.5458488464355469,0.08883226662874222
12082.0,31.356870651245117,10.705314636230469,0.7292764186859131,7.9728474617004395,-4.989584445953369,0.3797483742237091,4.9973931312561035,0.47618919610977173,0.028228146955370903
12083.0,31.35696792602539,11.861618995666504,0.7312416434288025,7.870574951171875,-4.501835346221924,0.46917101740837097,5.395397663116455,0.44063693284988403,0.046014513820409775
12084.0,31.357086181640625,13.060157775878906,0.7335115075111389,7.64874267578125,-4.1097331047058105,0.321321964263916,5.7831525802612305,0.41372963786125183,0.09316838532686234
12085.0,31.357210159301758,14.302473068237305,0.7361117005348206,7.506473064422607,-3.6034867763519287,0.3328615128993988,6.2026166915893555,0.4211439788341522,0.08502303808927536
12086.0,31.35734748840332,15.590157508850098,0.7390661835670471,7.367709159851074,-3.0498623847961426,0.4147565960884094,6.5682148933410645,0.4255295395851135,0.029988471418619156
12087.0,31.357501983642578,16.92487907409668,0.7423962950706482,7.121758460998535,-2.379478693008423,0.23676489293575287,6.903861045837402,0.4049847424030304,0.054549865424633026
12088.0,31.357667922973633,18.3083553314209,0.7461212873458862,6.936787128448486,-1.6724358797073364,0.421572208404541,7.220374584197998,0.3982639014720917,0.11704707890748978
12089.0,31.357851028442383,19.74237060546875,0.7502543926239014,6.553481101989746,-0.9096575379371643,0.21524523198604584,7.474472999572754,0.33638888597488403,0.10248314589262009
12090.0,31.358047485351562,21.22876739501953,0.7548026442527771,6.20941162109375,-0.18551863729953766,0.21012184023857117,7.690062999725342,0.2846721410751343,0.14468681812286377
12091.0,31.358259201049805,22.769458770751953,0.7597658634185791,5.9374308586120605,0.659372866153717,0.1721612811088562,7.842053413391113,0.29792019724845886,0.12334690988063812
12092.0,31.358478546142578,24.366437911987305,0.7651358246803284,5.72298526763916,1.4173002243041992,0.3307640254497528,7.953258037567139,0.300937682390213,0.18295300006866455
12093.0,31.358715057373047,26.021747589111328,0.770890474319458,5.426333427429199,2.2479817867279053,0.12296832352876663,7.941283702850342,0.2631385028362274,0.036714110523462296
12094.0,31.358951568603516,27.737531661987305,0.7769917845726013,5.282381057739258,3.231052875518799,0.3316623270511627,7.8723297119140625,0.23789475858211517,0.09555335342884064
12095.0,31.359203338623047,29.5159912109375,0.7833877205848694,4.946043014526367,4.02853536605835,0.019363055005669594,7.646304607391357,0.2330712229013443,0.14085786044597626
12096.0,31.359453201293945,31.359420776367188,0.7900147438049316,4.9379706382751465,4.950643539428711,0.35985663533210754,7.437600135803223,0.15578080713748932,0.2172538936138153
12097.0,31.359708786010742,33.270198822021484,0.7967787384986877,4.684778690338135,5.926951885223389,-0.014663783833384514,7.084038257598877,0.1115458756685257,0.0665605440735817
12098.0,31.35995864868164,35.25076675415039,0.8035563826560974,4.702824115753174,7.016055583953857,0.4090292155742645,6.806809425354004,0.13124911487102509,0.18101800978183746
12099.0,31.360225677490234,37.3037109375,0.8101897239685059,4.342160701751709,7.911168098449707,-0.15973728895187378,6.354961395263672,0.05526351183652878,-0.03707319125533104
12100.0,31.360485076904297,39.431644439697266,0.8164962530136108,4.476138591766357,9.050105094909668,0.2942177951335907,5.899701118469238,0.0026490038726478815,0.2411527931690216
12101.0,31.360746383666992,41.637325286865234,0.8222314119338989,4.349437236785889,10.198159217834473,-0.2593512237071991,5.339863300323486,-0.020508969202637672,-0.004086323548108339
12102.0,31.361005783081055,43.92359924316406,0.8271064758300781,4.6313934326171875,11.463126182556152,0.3978727459907532,4.648036479949951,-0.06448202580213547,0.26049670577049255
12103.0,31.361249923706055,46.29339599609375,0.830759584903717,4.4338459968566895,12.627994537353516,-0.4586677551269531,3.670684576034546,-0.14097751677036285,-0.03277459740638733
12104.0,31.361469268798828,48.74978256225586,0.8327789902687073,4.976206302642822,14.081130027770996,0.5227611660957336,2.6314752101898193,-0.10962803661823273,0.2727055549621582
12281.0,33.267459869384766,5.507053852081299,0.7392439246177673,10.777372360229492,-4.642772197723389,-0.29549431800842285,2.477623224258423,0.24598607420921326,0.08057492226362228
12282.0,33.267513275146484,6.473525047302246,0.7399678230285645,10.83846664428711,-4.36881685256958,-0.24892951548099518,2.9333243370056152,0.18499690294265747,0.058249227702617645
12283.0,33.26755905151367,7.475289344787598,0.7408530712127686,10.668426513671875,-4.276638031005859,-0.44335171580314636,3.3776936531066895,0.15783236920833588,0.0068565355613827705
12284.0,33.26762390136719,8.513641357421875,0.7419168949127197,10.567360877990723,-4.004723072052002,-0.41665393114089966,3.840843439102173,0.19373120367527008,0.09982216358184814
12285.0,33.267696380615234,9.589913368225098,0.7431783080101013,10.421570777893066,-3.792754650115967,-0.4568989872932434,4.260379314422607,0.20400451123714447,0.12168191373348236
12286.0,33.26778030395508,10.705491065979004,0.744656503200531,10.205193519592285,-3.6234593391418457,-0.4754815697669983,4.691072463989258,0.17631232738494873,0.06147122010588646
12287.0,33.267879486083984,11.861810684204102,0.7463731169700623,10.048867225646973,-3.2162632942199707,-0.427744597196579,5.088284969329834,0.1650325208902359,0.012095848098397255
12288.0,33.26797866821289,13.06036376953125,0.7483492493629456,9.843208312988281,-2.8748128414154053,-0.4352004826068878,5.4617509841918945,0.1622113585472107,0.11506599932909012
12289.0,33.26810073852539,14.302689552307129,0.7506061792373657,9.618744850158691,-2.4855096340179443,-0.4155206084251404,5.8564982414245605,0.16350774466991425,0.14089685678482056
12290.0,33.26823425292969,15.590392112731934,0.7531630992889404,9.361708641052246,-2.027595281600952,-0.35399577021598816,6.2340617179870605,0.19010235369205475,0.009718774817883968
12291.0,33.268375396728516,16.925125122070312,0.7560372948646545,8.998869895935059,-1.4751063585281372,-0.4838853180408478,6.585906028747559,0.19123531877994537,0.05521070584654808
12292.0,33.26852798461914,18.308610916137695,0.7592445611953735,8.737347602844238,-0.8412166833877563,-0.28306010365486145,6.928681373596191,0.15327297151088715,0.13189053535461426
12293.0,33.26870346069336,19.74263572692871,0.7627962827682495,8.374449729919434,-0.2133244127035141,-0.32665061950683594,7.168548107147217,0.15357966721057892,0.0810919925570488
12294.0,33.26888656616211,21.229042053222656,0.7666979432106018,8.03122615814209,0.44988203048706055,-0.2844708263874054,7.393100738525391,0.16887503862380981,0.08749990910291672
12295.0,33.26908493041992,22.76974105834961,0.7709479331970215,7.628367900848389,1.0558291673660278,-0.350474089384079,7.522796630859375,0.15285561978816986,0.036865536123514175
12296.0,33.269290924072266,24.366716384887695,0.7755388021469116,7.274064064025879,1.692896842956543,-0.1745738685131073,7.618133068084717,0.09432847052812576,0.09819202125072479
12297.0,33.26951599121094,26.022029876708984,0.7804518342018127,6.752007484436035,2.3687829971313477,-0.38034895062446594,7.608082294464111,0.04289078339934349,0.03966085612773895
12298.0,33.26974868774414,27.73780632019043,0.7856577634811401,6.413242816925049,3.141187906265259,-0.14566229283809662,7.528003692626953,0.04028347507119179,0.12661202251911163
12299.0,33.26998519897461,29.516263961791992,0.791114091873169,6.003753662109375,3.880216598510742,-0.3244434595108032,7.357577800750732,0.03216260299086571,0.08849883824586868
12300.0,33.27022171020508,31.359682083129883,0.7967620491981506,5.727869033813477,4.651994228363037,-0.10149896889925003,7.179635047912598,0.0395830012857914,0.17947396636009216
12301.0,33.27046203613281,33.27044677734375,0.8025187849998474,5.304908275604248,5.442489147186279,-0.38259971141815186,6.879546642303467,0.06332408636808395,0.03546569123864174
12302.0,33.27070999145508,35.25101089477539,0.808278501033783,5.157741069793701,6.364529609680176,0.025324378162622452,6.569594860076904,0.03790685161948204,0.12594062089920044
12303.0,33.27095413208008,37.30392837524414,0.8139075040817261,4.714831829071045,7.157143592834473,-0.31938204169273376,6.150791645050049,-0.027799563482403755,0.018145816400647163
12304.0,33.27120590209961,39.43183898925781,0.8192476630210876,4.711195468902588,8.162468910217285,0.19762182235717773,5.731246471405029,-0.0561286136507988,0.2122316211462021
12305.0,33.27145767211914,41.63749313354492,0.8240858316421509,4.399471759796143,9.137016296386719,-0.312092661857605,5.17477560043335,-0.07416743040084839,-0.08699698001146317
12306.0,33.27170181274414,43.923728942871094,0.8281744718551636,4.5253472328186035,10.227540016174316,0.31710585951805115,4.467102527618408,-0.08078544586896896,0.18971842527389526
12307.0,33.271942138671875,46.29348373413086,0.8312135338783264,4.224781513214111,11.193671226501465,-0.33875471353530884,3.5545918941497803,-0.15801747143268585,-0.03825721517205238
12308.0,33.272151947021484,48.749813079833984,0.8328791856765747,4.416624546051025,12.197028160095215,0.4904288649559021,2.5151784420013428,-0.12884683907032013,0.18304787576198578
12485.0,35.248226165771484,5.507145404815674,0.7558010816574097,13.335196495056152,-2.335630416870117,0.3200240135192871,2.236882209777832,0.573728621006012,0.052224304527044296
12486.0,35.24826431274414,6.473632335662842,0.7564154267311096,13.147828102111816,-2.3005330562591553,0.3375580310821533,2.6703035831451416,0.5638096928596497,0.04724081978201866
12487.0,35.24831771850586,7.475414276123047,0.7571655511856079,13.067566871643066,-2.067216157913208,0.4158895015716553,3.065000057220459,0.5635828375816345,0.02954063192009926
12488.0,35.24837875366211,8.513781547546387,0.7580649852752686,13.000267028808594,-1.8691260814666748,0.5652801990509033,3.4985296726226807,0.5410089492797852,0.09297364950180054
12489.0,35.248443603515625,9.590069770812988,0.759128212928772,12.814552307128906,-1.6898833513259888,0.5721949934959412,3.9026455879211426,0.5513668656349182,0.062662273645401
12490.0,35.24851989746094,10.70566463470459,0.7603716254234314,12.562521934509277,-1.5220144987106323,0.47971585392951965,4.3162407875061035,0.5615901350975037,0.06575686484575272
12491.0,35.24860763549805,11.862000465393066,0.7618122696876526,12.381712913513184,-1.1976341009140015,0.5185227394104004,4.737961292266846,0.5357914566993713,0.030682221055030823
12492.0,35.24870681762695,13.060568809509277,0.7634667754173279,12.096991539001465,-1.0365524291992188,0.5428701043128967,5.1069111824035645,0.520307719707489,0.0573953315615654
12493.0,35.24882125854492,14.302910804748535,0.7653522491455078,11.770171165466309,-0.7101000547409058,0.4786684513092041,5.48720121383667,0.4763842225074768,0.05869579687714577
12494.0,35.24893569946289,15.59062385559082,0.7674837708473206,11.440967559814453,-0.32923877239227295,0.4704420268535614,5.8521199226379395,0.48967745900154114,-0.0068575358018279076
12495.0,35.24907302856445,16.925371170043945,0.7698754668235779,11.106346130371094,0.07699346542358398,0.44375941157341003,6.166363716125488,0.5051507353782654,0.020330267027020454
12496.0,35.24922180175781,18.308870315551758,0.7725391983985901,10.790207862854004,0.5716218948364258,0.5281700491905212,6.453876972198486,0.40288046002388,0.0692608430981636
12497.0,35.2493782043457,19.742902755737305,0.775484025478363,10.31118106842041,0.9388255476951599,0.3834651708602905,6.669238567352295,0.38218048214912415,0.006701125763356686
12498.0,35.24955368041992,21.229310989379883,0.7787145972251892,9.940064430236816,1.4960166215896606,0.5020951628684998,6.877254486083984,0.4164135754108429,0.03141459450125694
12499.0,35.24973678588867,22.770017623901367,0.7822294235229492,9.33816146850586,1.9295748472213745,0.28847646713256836,7.028396129608154,0.3780157268047333,0.05577332526445389
12500.0,35.24992752075195,24.36699676513672,0.7860222458839417,8.827851295471191,2.4415013790130615,0.41594454646110535,7.1783647537231445,0.3349780738353729,0.08407097309827805
12501.0,35.25013732910156,26.022310256958008,0.7900791168212891,8.244647979736328,2.9876744747161865,0.2587093412876129,7.222324848175049,0.3062432110309601,0.06052093952894211
12502.0,35.25034713745117,27.738086700439453,0.7943773865699768,7.763188362121582,3.48586106300354,0.3573131859302521,7.212982654571533,0.25227853655815125,0.10919667035341263
12503.0,35.25057601928711,29.516538619995117,0.7988803386688232,7.266933917999268,4.147220134735107,0.2079951912164688,7.103306770324707,0.18281880021095276,0.017208077013492584
12504.0,35.250797271728516,31.359954833984375,0.8035353422164917,6.8365254402160645,4.777583599090576,0.2899928390979767,6.893059730529785,0.2011130154132843,0.10745931416749954
12505.0,35.25102233886719,33.27070617675781,0.8082724213600159,6.313747406005859,5.35329008102417,0.0836416557431221,6.620090007781982,0.2004621922969818,-0.04460708796977997
12506.0,35.25125503540039,35.25125503540039,0.8130062818527222,5.92842960357666,6.016054153442383,0.3081587255001068,6.277507305145264,0.10750781744718552,0.0876319408416748
12507.0,35.25149154663086,37.30414962768555,0.817626416683197,5.341808795928955,6.584504127502441,-0.06716645509004593,5.906907081604004,0.0980563834309578,0.06317055970430374
12508.0,35.2517204284668,39.43204116821289,0.8219975829124451,5.114416122436523,7.398196697235107,0.3082874119281769,5.479719161987305,0.10596238076686859,0.17937254905700684
12509.0,35.251956939697266,41.63766098022461,0.8259359002113342,4.522525787353516,8.109034538269043,-0.2325446605682373,4.961426258087158,0.021606890484690666,-0.09760314971208572
12510.0,35.252193450927734,43.92385482788086,0.8292374014854431,4.3724212646484375,8.96173095703125,0.2956981956958771,4.2753376960754395,0.017780764028429985,0.12886546552181244
12511.0,35.252410888671875,46.29356384277344,0.8316646218299866,3.834686756134033,9.66169261932373,-0.3130495846271515,3.3827481269836426,-0.0760805532336235,-0.06680739670991898
12512.0,35.25261306762695,48.749839782714844,0.8329786658287048,3.728647470474243,10.219780921936035,0.362106055021286,2.36100697517395,-0.11125637590885162,0.14005281031131744
12689.0,37.30137634277344,5.507232189178467,0.7723748683929443,15.827857971191406,-0.5820248126983643,-0.42349931597709656,2.0908396244049072,0.20162080228328705,0.046625442802906036
12690.0,37.30141830444336,6.473735332489014,0.7728690505027771,15.74800968170166,-0.5547583103179932,-0.42781680822372437,2.4640347957611084,0.22816111147403717,0.12069278210401535
12691.0,37.301456451416016,7.4755330085754395,0.7734709978103638,15.542564392089844,-0.5528303980827332,-0.5575131773948669,2.851045846939087,0.2633788287639618,0.030184658244252205
12692.0,37.301513671875,8.513916015625,0.7741917967796326,15.363128662109375,-0.38958099484443665,-0.5479246973991394,3.2304110527038574,0.21972861886024475,0.021121054887771606
12693.0,37.301578521728516,9.590218544006348,0.7750425338745117,15.063255310058594,-0.35659945011138916,-0.6742601990699768,3.6122775077819824,0.20796550810337067,-0.012359613552689552
12694.0,37.3016471862793,10.705832481384277,0.7760354280471802,14.889558792114258,-0.06670557707548141,-0.5415055155754089,3.9821207523345947,0.2014218419790268,0.01930415816605091
12695.0,37.301727294921875,11.862183570861816,0.7771841287612915,14.591928482055664,0.08746539801359177,-0.5262210965156555,4.349754810333252,0.17580701410770416,0.012451044283807278
12696.0,37.30181884765625,13.06076717376709,0.7785019278526306,14.268362998962402,0.19767597317695618,-0.51190185546875,4.6871724128723145,0.14281807839870453,-0.04160180315375328
12697.0,37.30192184448242,14.30312442779541,0.7800014019012451,13.92997932434082,0.46218544244766235,-0.550730288028717,5.016809940338135,0.10230368375778198,-0.029495375230908394
12698.0,37.302032470703125,15.590852737426758,0.7816939949989319,13.522879600524902,0.7188670635223389,-0.5465015769004822,5.3476948738098145,0.12922240793704987,0.039114054292440414
12699.0,37.302154541015625,16.925613403320312,0.7835903763771057,13.065077781677246,0.931059718132019,-0.5753845572471619,5.666265487670898,0.1513235718011856,0.06375157833099365
12700.0,37.30228805541992,18.309125900268555,0.7856996059417725,12.637876510620117,1.2773526906967163,-0.5009934902191162,5.923007011413574,0.09428375214338303,0.07314584404230118
12701.0,37.302433013916016,19.743165969848633,0.7880286574363708,12.066980361938477,1.56424880027771,-0.5550022721290588,6.158542156219482,0.10620034486055374,-0.009868820197880268
12702.0,37.30259323120117,21.229583740234375,0.7905817627906799,11.509292602539062,1.9432936906814575,-0.4678507447242737,6.374768257141113,0.18576565384864807,-0.027373092249035835
12703.0,37.30275344848633,22.770296096801758,0.7933590412139893,10.88520622253418,2.407714605331421,-0.4946437180042267,6.524406909942627,0.13245581090450287,0.05558827891945839
12704.0,37.30293273925781,24.367280960083008,0.7963547110557556,10.281502723693848,2.7903456687927246,-0.31181374192237854,6.666266441345215,0.04468172788619995,0.08971328288316727
12705.0,37.30311965942383,26.02259635925293,0.7995577454566956,9.595431327819824,3.146920919418335,-0.4030029773712158,6.710338115692139,0.0629439577460289,0.016827138140797615
12706.0,37.30331802368164,27.738372802734375,0.8029509782791138,9.027302742004395,3.5434231758117676,-0.25537264347076416,6.713267803192139,0.05092724785208702,0.04374362528324127
12707.0,37.303524017333984,29.51681900024414,0.806503415107727,8.382683753967285,4.039588451385498,-0.3427238166332245,6.604419231414795,0.0030812290497124195,-0.062248893082141876
12708.0,37.30373001098633,31.360227584838867,0.8101711869239807,7.779438018798828,4.527312755584717,-0.19046352803707123,6.421320915222168,-0.004955518990755081,0.023653702810406685
12709.0,37.30393600463867,33.27096939086914,0.8138999342918396,7.074065685272217,4.933740139007568,-0.27318093180656433,6.176061630249023,-0.0415840707719326,-0.013800172135233879
12710.0,37.30414962768555,35.25149917602539,0.8176237344741821,6.536658763885498,5.381007194519043,-0.06653349846601486,5.850841045379639,-0.044741299003362656,0.08181584626436234
12711.0,37.30435562133789,37.304378509521484,0.821252703666687,5.892097473144531,5.826805591583252,-0.2972237765789032,5.5252227783203125,0.008350915275514126,-0.027864929288625717
12712.0,37.3045768737793,39.43223571777344,0.82467120885849,5.431575298309326,6.51591157913208,0.05691042169928551,5.095719814300537,-0.024766001850366592,0.12596945464611053
12713.0,37.30479049682617,41.6378288269043,0.8277286887168884,4.649900436401367,7.0395731925964355,-0.26083874702453613,4.614989757537842,-0.10748516768217087,-0.043710801750421524
12714.0,37.30500411987305,43.92398452758789,0.8302660584449768,4.199378490447998,7.6581830978393555,0.19182723760604858,3.9708285331726074,-0.05948799476027489,0.11780280619859695
12715.0,37.305206298828125,46.29365539550781,0.8321018815040588,3.4471278190612793,8.113785743713379,-0.2876432240009308,3.1325266361236572,-0.08972310274839401,-0.11446792632341385
12716.0,37.305389404296875,48.749874114990234,0.8330749869346619,3.0883378982543945,8.286941528320312,0.2997922897338867,2.1927034854888916,-0.10071296244859695,0.08223522454500198
12893.0,39.4295768737793,5.507314682006836,0.7884476184844971,18.71785545349121,1.6771248579025269,0.4636673331260681,1.8555619716644287,0.65948885679245,-0.05113476142287254
12894.0,39.42960739135742,6.473832130432129,0.7888168692588806,18.651521682739258,1.8913562297821045,0.7117443084716797,2.177671432495117,0.7076337337493896,-0.0013810190139338374
12895.0,39.42965316772461,7.47564697265625,0.7892656922340393,18.367830276489258,1.8376035690307617,0.6476026177406311,2.511029005050659,0.6976907253265381,-0.04948597401380539
12896.0,39.4296989440918,8.514045715332031,0.7898033857345581,18.13504981994629,1.9406081438064575,0.6220125555992126,2.871673345565796,0.6445519924163818,0.010613805614411831
12897.0,39.429752349853516,9.590365409851074,0.7904382348060608,17.935060501098633,2.0906851291656494,0.7366106510162354,3.22458815574646,0.6724076867103577,-0.01611286960542202
12898.0,39.429813385009766,10.705992698669434,0.7911778092384338,17.604089736938477,2.1374547481536865,0.6733213067054749,3.5506362915039062,0.6484140753746033,-0.04734552651643753
12899.0,39.42988586425781,11.862360000610352,0.7920321822166443,17.151521682739258,2.0938870906829834,0.4788427948951721,3.8901350498199463,0.5977972149848938,0.0016110388096421957
12900.0,39.42996597290039,13.060959815979004,0.7930120825767517,16.886367797851562,2.3612287044525146,0.6689959168434143,4.221194744110107,0.5874879956245422,-0.023181768134236336
12901.0,39.430057525634766,14.30333137512207,0.7941263914108276,16.470327377319336,2.497732400894165,0.6517052054405212,4.512755870819092,0.5274763703346252,-0.038704756647348404
12902.0,39.43015670776367,15.591078758239746,0.7953829765319824,15.988984107971191,2.6237261295318604,0.6254499554634094,4.819667339324951,0.46404844522476196,0.0752233937382698
12903.0,39.43026351928711,16.92584991455078,0.7967897653579712,15.451796531677246,2.7809770107269287,0.6323928833007812,5.147453784942627,0.4757518470287323,0.09012310206890106
12904.0,39.43038558959961,18.30937385559082,0.798353910446167,14.843384742736816,2.9244959354400635,0.6517184376716614,5.392131328582764,0.49337121844291687,0.07686785608530045
12905.0,39.43050765991211,19.743425369262695,0.8000802993774414,14.133721351623535,3.0330424308776855,0.5384541153907776,5.623885154724121,0.4687613844871521,0.026896430179476738
12906.0,39.43064498901367,21.229856491088867,0.8019728064537048,13.509894371032715,3.3213937282562256,0.600924015045166,5.824444770812988,0.4489784836769104,-0.007765210699290037
12907.0,39.430789947509766,22.770570755004883,0.8040314316749573,12.785872459411621,3.527909994125366,0.4888858199119568,5.96043062210083,0.3849853277206421,-0.00939409900456667
12908.0,39.43095016479492,24.367565155029297,0.8062514662742615,12.111141204833984,3.7562694549560547,0.4991099536418915,6.102029800415039,0.3378154933452606,-0.0006470775697380304
12909.0,39.43111801147461,26.02287483215332,0.8086237907409668,11.339203834533691,3.943570852279663,0.3903946578502655,6.163695335388184,0.3590182065963745,-0.00895270798355341
12910.0,39.43129348754883,27.738651275634766,0.8111363053321838,10.564959526062012,4.174096584320068,0.41201549768447876,6.204334735870361,0.3107239902019501,0.058040864765644073
12911.0,39.43147277832031,29.517093658447266,0.8137656450271606,9.693413734436035,4.418416976928711,0.28711339831352234,6.086490154266357,0.25931262969970703,-0.05194910988211632
12912.0,39.43165588378906,31.360502243041992,0.8164792656898499,8.893485069274902,4.6816582679748535,0.38877004384994507,5.9279890060424805,0.23245620727539062,-0.003914958331733942
12913.0,39.43184280395508,33.2712287902832,0.8192371726036072,8.007984161376953,4.799166202545166,0.15509937703609467,5.688778400421143,0.16991056501865387,-0.013572090305387974
12914.0,39.43203353881836,35.25174331665039,0.8219913840293884,7.361197471618652,5.065492630004883,0.2692442238330841,5.409688949584961,0.1610458642244339,0.09880255162715912
12915.0,39.43222427368164,37.30459976196289,0.8246684670448303,6.5692973136901855,5.356663227081299,0.08515048027038574,5.067397594451904,0.12045250833034515,-0.05129840970039368
12916.0,39.43241500854492,39.43243408203125,0.8271766304969788,5.873603343963623,5.781692028045654,0.30052003264427185,4.608923435211182,0.029333235695958138,0.07526155561208725
12917.0,39.4326057434082,41.637996673583984,0.829402506351471,4.931474208831787,6.078072547912598,-0.04740229994058609,4.1158576011657715,-0.0061216698959469795,-0.05230420455336571
12918.0,39.43278884887695,43.924110412597656,0.8312259316444397,4.2042927742004395,6.501404285430908,0.21726539731025696,3.5113089084625244,0.023844389244914055,0.09030968695878983
12919.0,39.43296432495117,46.29373550415039,0.8325101137161255,3.2254083156585693,6.703624248504639,-0.1473466008901596,2.7504727840423584,-0.022501902654767036,-0.16794395446777344
12920.0,39.43313217163086,48.749900817871094,0.833165168762207,2.5219156742095947,6.4607930183410645,0.24785684049129486,1.9671324491500854,-0.05303662270307541,-0.008557072840631008
13097.0,41.63557815551758,5.507390975952148,0.8033515214920044,21.673826217651367,3.3864896297454834,-0.6547146439552307,1.5376121997833252,0.21935299038887024,-0.09679555147886276
13098.0,41.63560104370117,6.473923206329346,0.8035998344421387,21.496688842773438,3.4556162357330322,-0.6569676995277405,1.8723318576812744,0.18412233889102936,-0.0992540568113327
13099.0,41.63563919067383,7.4757537841796875,0.803901731967926,21.263032913208008,3.442140579223633,-0.7326202988624573,2.1903398036956787,0.14388127624988556,-0.055878639221191406
13100.0,41.635677337646484,8.514168739318848,0.8042635321617126,20.94722557067871,3.36942458152771,-0.8098068833351135,2.4989736080169678,0.1754312664270401,0.013147220015525818
13101.0,41.63572311401367,9.59050464630127,0.8046908974647522,20.68470573425293,3.536522150039673,-0.7299808859825134,2.805610418319702,0.21635079383850098,0.021015586331486702
13102.0,41.63577651977539,10.706145286560059,0.8051886558532715,20.266706466674805,3.4702341556549072,-0.7160090804100037,3.1019556522369385,0.21515360474586487,-0.038425032049417496
13103.0,41.63583755493164,11.862531661987305,0.8057631850242615,19.777280807495117,3.4254965782165527,-0.7613195776939392,3.4128053188323975,0.17779920995235443,-0.04183214157819748
13104.0,41.63589859008789,13.06114387512207,0.8064226508140564,19.336519241333008,3.601125478744507,-0.6872841119766235,3.714998483657837,0.16466857492923737,-0.030146058648824692
13105.0,41.635982513427734,14.303533554077148,0.8071727156639099,18.787717819213867,3.6248457431793213,-0.7281675934791565,3.98744535446167,0.13746953010559082,-0.04093819484114647
13106.0,41.63606262207031,15.591292381286621,0.8080183267593384,18.229883193969727,3.629854679107666,-0.7347179055213928,4.254443645477295,0.09388602524995804,0.042870454490184784
13107.0,41.63615417480469,16.92607879638672,0.8089657425880432,17.668113708496094,3.779201030731201,-0.6559774279594421,4.506611347198486,0.09984087198972702,-0.002389112487435341
13108.0,41.63625717163086,18.309616088867188,0.8100184798240662,16.952993392944336,3.7717528343200684,-0.6447060108184814,4.7121453285217285,0.13204799592494965,-0.0463140569627285
13109.0,41.6363639831543,19.743677139282227,0.8111804723739624,16.186861038208008,3.769134283065796,-0.6914978623390198,4.936691761016846,0.134524405002594,-0.040824487805366516
13110.0,41.636478424072266,21.23011589050293,0.8124542236328125,15.490851402282715,3.958721399307251,-0.5694704651832581,5.121058940887451,0.06767783313989639,-0.05349487438797951
13111.0,41.636600494384766,22.770841598510742,0.8138394951820374,14.651716232299805,3.9684715270996094,-0.6115160584449768,5.281980514526367,0.02928551845252514,-0.05342506989836693
13112.0,41.63673400878906,24.367839813232422,0.8153332471847534,13.876276016235352,4.150110244750977,-0.4998646378517151,5.436675548553467,0.07087837904691696,-0.051296383142471313
13113.0,41.63687515258789,26.023160934448242,0.816928505897522,12.937932968139648,4.2061591148376465,-0.4861319363117218,5.470748424530029,0.04409146308898926,-0.06451345235109329
13114.0,41.63702392578125,27.73892593383789,0.818618893623352,11.978282928466797,4.287326812744141,-0.40604040026664734,5.503288745880127,-0.01730201207101345,0.024315830320119858
13115.0,41.63718032836914,29.517375946044922,0.8203901052474976,10.973921775817871,4.35089111328125,-0.4316096901893616,5.373134136199951,-0.028087105602025986,0.007375226356089115
13116.0,41.637332916259766,31.360767364501953,0.8222184777259827,10.055390357971191,4.399860858917236,-0.2966175377368927,5.251728534698486,-0.04206949472427368,0.016840482130646706
13117.0,41.63749313354492,33.271480560302734,0.8240761756896973,9.059172630310059,4.368458271026611,-0.36443087458610535,5.042994022369385,-0.03083900734782219,-0.10016514360904694
13118.0,41.63766098022461,35.25197982788086,0.8259297609329224,8.201354026794434,4.5435709953308105,-0.12761510908603668,4.796457767486572,-0.03759130835533142,0.026791784912347794
13119.0,41.637821197509766,37.304813385009766,0.827727198600769,7.140243053436279,4.6088690757751465,-0.21961306035518646,4.414539813995361,-0.10575180500745773,-0.056112974882125854
13120.0,41.63797378540039,39.4326171875,0.8294023871421814,6.164131164550781,4.736743927001953,-0.09767334163188934,3.9990198612213135,-0.10037948191165924,0.01408930029720068
13121.0,41.63813781738281,41.63814163208008,0.8308764696121216,5.099279880523682,4.944940567016602,-0.2641638219356537,3.517005681991577,-0.06574977189302444,-0.10110825300216675
13122.0,41.63829040527344,43.92422866821289,0.832061767578125,4.160007953643799,5.289535999298096,0.05784150958061218,2.935640811920166,-0.06528355926275253,0.036876380443573
13123.0,41.638431549072266,46.29380798339844,0.8328613638877869,2.9520630836486816,5.297929286956787,-0.20433510839939117,2.255011558532715,-0.09294319897890091,-0.15069971978664398
13124.0,41.63856887817383,48.749916076660156,0.8332420587539673,2.0040647983551025,4.826326847076416,0.12927933037281036,1.6783828735351562,-0.0646061822772026,-0.03607642650604248
13301.0,43.92222595214844,5.507465839385986,0.8162832856178284,25.172456741333008,6.061328411102295,0.7338640689849854,1.3929920196533203,0.8115076422691345,-0.08931146562099457
13302.0,43.922245025634766,6.4740142822265625,0.8164244890213013,25.020448684692383,6.193172454833984,0.878201425075531,1.6820847988128662,0.7586196660995483,-0.08664100617170334
13303.0,43.922271728515625,7.475859642028809,0.8165966272354126,24.721738815307617,6.145315170288086,0.9225445985794067,1.943429708480835,0.7341080904006958,0.014789022505283356
13304.0,43.922306060791016,8.514288902282715,0.8168033361434937,24.285728454589844,5.929563522338867,0.8397302031517029,2.186919927597046,0.7513232231140137,0.016547484323382378
13305.0,43.92233657836914,9.590638160705566,0.8170479536056519,23.938615798950195,6.046882152557373,0.8286004662513733,2.4261462688446045,0.7396345138549805,0.0041639297269284725
13306.0,43.92237854003906,10.706295013427734,0.8173326253890991,23.49232292175293,5.968344688415527,0.8281388282775879,2.6797714233398438,0.7239575982093811,-0.004100023303180933
13307.0,43.92242431640625,11.862693786621094,0.8176611661911011,23.012897491455078,5.86655330657959,0.8390170335769653,2.9381842613220215,0.6541747450828552,-0.027303963899612427
13308.0,43.922481536865234,13.061323165893555,0.8180388808250427,22.553211212158203,5.949552536010742,0.8814419507980347,3.1776349544525146,0.6331349015235901,-0.03877287730574608
13309.0,43.922542572021484,14.30372428894043,0.8184685111045837,21.923198699951172,5.891628265380859,0.7633119225502014,3.4055380821228027,0.6587919592857361,-0.04467597231268883
13310.0,43.922603607177734,15.591497421264648,0.8189526200294495,21.271574020385742,5.834918022155762,0.7825044393539429,3.633220911026001,0.6014547944068909,0.012637859210371971
13311.0,43.922672271728516,16.926298141479492,0.8194952607154846,20.528564453125,5.808774948120117,0.732564389705658,3.8252179622650146,0.5502756237983704,-0.023236321285367012
13312.0,43.922752380371094,18.309844970703125,0.820097804069519,19.686796188354492,5.683703899383545,0.6382448077201843,4.027400493621826,0.558410108089447,-0.0800444558262825
13313.0,43.922828674316406,19.743925094604492,0.8207629919052124,18.91227149963379,5.647573471069336,0.740820050239563,4.245791912078857,0.5164477825164795,-0.05666520819067955
13314.0,43.922916412353516,21.230369567871094,0.8214923143386841,18.01228904724121,5.589725494384766,0.696044921875,4.401054382324219,0.41810280084609985,-0.053153447806835175
13315.0,43.92302703857422,22.771100997924805,0.8222857117652893,16.970766067504883,5.388213634490967,0.5370967388153076,4.583122730255127,0.43660739064216614,-0.03218914195895195
13316.0,43.923126220703125,24.36810302734375,0.8231419920921326,16.02825355529785,5.4038166999816895,0.6525402069091797,4.697617053985596,0.48455023765563965,-0.022643787786364555
13317.0,43.923240661621094,26.02342414855957,0.8240569829940796,14.85482120513916,5.183710098266602,0.4837329685688019,4.719828128814697,0.39292141795158386,-0.06611336022615433
13318.0,43.923362731933594,27.739198684692383,0.8250280022621155,13.738471031188965,5.037048816680908,0.4478103816509247,4.761308670043945,0.3152659237384796,-0.021540271118283272
13319.0,43.92346954345703,29.517637252807617,0.8260473608970642,12.633861541748047,4.9282402992248535,0.46684619784355164,4.639923572540283,0.2585641145706177,-0.06052177771925926
13320.0,43.92359161376953,31.361021041870117,0.8270993828773499,11.415831565856934,4.659648418426514,0.39466503262519836,4.549623966217041,0.19378253817558289,0.01079397089779377
13321.0,43.923728942871094,33.271724700927734,0.8281678557395935,10.154376983642578,4.406653881072998,0.2588284909725189,4.375982761383057,0.20969678461551666,-0.03501124680042267
13322.0,43.92385482788086,35.2522087097168,0.8292337656021118,8.992499351501465,4.289486408233643,0.30581119656562805,4.165013790130615,0.19632452726364136,-0.018007172271609306
13323.0,43.923980712890625,37.30501937866211,0.8302668333053589,7.773655414581299,4.139118194580078,0.1827511191368103,3.807187795639038,0.11086303740739822,-0.10525263845920563
13324.0,43.924102783203125,39.43280029296875,0.8312259316444397,6.634678840637207,4.076356887817383,0.2561948597431183,3.4565088748931885,0.08093290776014328,0.0008100735722109675
13325.0,43.924224853515625,41.6382942199707,0.8320607542991638,5.37763786315918,4.032009124755859,0.10106837749481201,2.976255416870117,0.06918036937713623,-0.10270684957504272
13326.0,43.924339294433594,43.924339294433594,0.8327159285545349,4.140308856964111,4.0885009765625,0.15870743989944458,2.3572826385498047,0.0169589351862669,0.01845613121986389
13327.0,43.9244384765625,46.293880462646484,0.833128809928894,2.819204092025757,4.074581623077393,-0.0584602989256382,1.7382657527923584,-0.01891094259917736,-0.1046404168009758
13328.0,43.92454528808594,48.74994659423828,0.8332995176315308,1.699836015701294,3.557281732559204,0.20822538435459137,1.341776967048645,-0.014182338491082191,-0.05133546143770218
13504.0,46.292484283447266,4.575035095214844,0.8261551260948181,29.358318328857422,7.855423927307129,-0.964853823184967,0.9956708550453186,0.2792699337005615,-0.027767017483711243
13505.0,46.292503356933594,5.507543563842773,0.826201856136322,29.15229606628418,7.78916597366333,-0.8956499695777893,1.147932529449463,0.32865360379219055,-0.025715187191963196
13506.0,46.292510986328125,6.474106311798096,0.8262606859207153,28.904420852661133,7.834588050842285,-0.9659100770950317,1.3777508735656738,0.2757851779460907,-0.021727459505200386
13507.0,46.29252624511719,7.475964069366455,0.8263322114944458,28.57328987121582,7.737247467041016,-0.9601554274559021,1.5873479843139648,0.2247183471918106,0.004252682905644178
13508.0,46.292545318603516,8.514408111572266,0.8264187574386597,28.10838508605957,7.509037017822266,-1.0629080533981323,1.8113768100738525,0.22788074612617493,-0.04562123119831085
13509.0,46.292572021484375,9.590771675109863,0.8265214562416077,27.76174545288086,7.5968403816223145,-0.9359961152076721,2.0171587467193604,0.1771542876958847,-0.05884498730301857
13510.0,46.292598724365234,10.706442832946777,0.826640248298645,27.24100112915039,7.484688758850098,-0.9453391432762146,2.2487528324127197,0.11820267140865326,-0.03323206678032875
13511.0,46.29262924194336,11.862855911254883,0.8267775177955627,26.620149612426758,7.272446632385254,-0.9920267462730408,2.4755046367645264,0.1327054351568222,-0.012631273828446865
13512.0,46.292659759521484,13.06149959564209,0.8269358277320862,26.042789459228516,7.23677396774292,-0.8619418144226074,2.67551589012146,0.12107880413532257,-0.018721407279372215
13513.0,46.29269790649414,14.303910255432129,0.8271160125732422,25.278987884521484,7.088322162628174,-0.958548903465271,2.8644657135009766,0.09563536942005157,-0.048535969108343124
13514.0,46.29273986816406,15.591696739196777,0.8273187875747681,24.53239631652832,7.014824390411377,-0.841886043548584,3.0317435264587402,0.056072358042001724,-0.10430103540420532
13515.0,46.292789459228516,16.926511764526367,0.8275467157363892,23.682525634765625,6.905398368835449,-0.7906087636947632,3.161865711212158,0.03595251962542534,-0.08232792466878891
13516.0,46.29283905029297,18.31007194519043,0.8277997970581055,22.73594856262207,6.7166972160339355,-0.7745287418365479,3.3140337467193604,0.10483085364103317,-0.0777665376663208
13517.0,46.29289245605469,19.744155883789062,0.8280791640281677,21.72166633605957,6.4841389656066895,-0.7230930924415588,3.4587292671203613,0.09223610907793045,-0.0923025906085968
13518.0,46.292945861816406,21.230607986450195,0.8283864259719849,20.666610717773438,6.331329822540283,-0.701907753944397,3.5380537509918213,0.026617737486958504,-0.06837297230958939
13519.0,46.29301452636719,22.771347045898438,0.8287211060523987,19.478471755981445,6.038052558898926,-0.7042782306671143,3.6672308444976807,0.07517383247613907,-0.10489475727081299
13520.0,46.293087005615234,24.368350982666016,0.8290826082229614,18.279897689819336,5.849666118621826,-0.5688976645469666,3.719686508178711,0.06780671328306198,-0.12140876799821854
13521.0,46.293155670166016,26.023677825927734,0.8294692635536194,16.909677505493164,5.4915361404418945,-0.6056455969810486,3.7241930961608887,0.00335000641644001,-0.09859567135572433
13522.0,46.29323959350586,27.739444732666016,0.8298801183700562,15.520383834838867,5.171397686004639,-0.5491802096366882,3.749122381210327,-0.0030516290571540594,-0.09747345000505447
13523.0,46.293312072753906,29.51788330078125,0.83031165599823,14.099517822265625,4.8583292961120605,-0.4704248309135437,3.649141550064087,-0.03255594149231911,-0.17986871302127838
13524.0,46.293399810791016,31.361263275146484,0.830757200717926,12.62082576751709,4.467787265777588,-0.4186708331108093,3.5895044803619385,-0.053035058081150055,-0.12331102788448334
13525.0,46.29348373413086,33.27194595336914,0.8312097191810608,11.130311012268066,4.0946364402771,-0.3760628402233124,3.472536325454712,-0.05151326209306717,-0.08990408480167389
13526.0,46.29357147216797,35.25241470336914,0.8316622376441956,9.6290283203125,3.6907312870025635,-0.34405654668807983,3.318406820297241,-0.08435910940170288,-0.0586884543299675
13527.0,46.29364776611328,37.30521011352539,0.8321017026901245,8.180033683776855,3.383148431777954,-0.29410335421562195,3.0277440547943115,-0.12680639326572418,-0.1706543117761612
13528.0,46.29372787475586,39.43296813964844,0.8325086832046509,6.7863545417785645,3.1139769554138184,-0.14233024418354034,2.7037394046783447,-0.13462145626544952,-0.05402988940477371
13529.0,46.29380798339844,41.638431549072266,0.8328598737716675,5.325706958770752,2.845700263977051,-0.21644555032253265,2.2811737060546875,-0.10887445509433746,-0.09491094946861267
13530.0,46.293880462646484,43.9244384765625,0.8331290483474731,4.086047649383545,2.8269095420837402,-0.04686647281050682,1.768212080001831,-0.11906784027814865,0.025646444410085678
13531.0,46.29393768310547,46.29393005371094,0.833281397819519,2.682302713394165,2.697803020477295,-0.20875658094882965,1.2121106386184692,-0.1231992319226265,-0.10251147300004959
13532.0,46.29399871826172,48.74996566772461,0.833328127861023,1.4074467420578003,2.4070637226104736,0.07418403029441833,0.9294385313987732,-0.05055629834532738,-0.046312425285577774
13709.0,48.749454498291016,5.507619857788086,0.8317899107933044,33.63884353637695,10.906180381774902,1.006247878074646,0.8790427446365356,0.704935610294342,-0.005918923765420914
13710.0,48.74946594238281,6.474196434020996,0.8318027853965759,33.3869514465332,10.891654968261719,1.0150600671768188,1.0541797876358032,0.6469923853874207,0.010093665681779385
13711.0,48.74947738647461,7.476067543029785,0.8318181037902832,33.10305404663086,10.84915542602539,1.1466516256332397,1.2117581367492676,0.6332103610038757,-0.03239499405026436
13712.0,48.74947738647461,8.514525413513184,0.8318363428115845,32.62721633911133,10.655171394348145,1.0384163856506348,1.3789904117584229,0.6780509948730469,-0.07655327767133713
13713.0,48.74948501586914,9.590904235839844,0.8318585157394409,32.200313568115234,10.589408874511719,1.110154628753662,1.52649986743927,0.6524814963340759,-0.053861673921346664
13714.0,48.74949645996094,10.706588745117188,0.8318835496902466,31.645023345947266,10.418137550354004,1.10200035572052,1.693716287612915,0.6286949515342712,-0.03216394782066345
13715.0,48.749507904052734,11.863014221191406,0.831912636756897,30.93807601928711,10.163247108459473,1.0117405652999878,1.8558100461959839,0.7054175734519958,-0.029781818389892578
13716.0,48.749515533447266,13.06166934967041,0.8319464921951294,30.210634231567383,9.957600593566895,1.0390819311141968,2.002816915512085,0.7011857628822327,-0.025675293058156967
13717.0,48.749534606933594,14.304094314575195,0.8319850564002991,29.356855392456055,9.694846153259277,0.9560494422912598,2.14676833152771,0.6542487144470215,-0.033487677574157715
13718.0,48.74954605102539,15.591890335083008,0.8320287466049194,28.45272445678711,9.436748504638672,0.9302514791488647,2.268331289291382,0.6453014016151428,-0.10920017212629318
13719.0,48.749568939208984,16.926712036132812,0.8320780992507935,27.488874435424805,9.168828010559082,0.8980218172073364,2.3656222820281982,0.6138750910758972,-0.09398356080055237
13720.0,48.749576568603516,18.310279846191406,0.8321332931518555,26.43588638305664,8.842345237731934,0.8778467178344727,2.4653584957122803,0.6003877520561218,-0.06357070803642273
13721.0,48.74959945678711,19.74437141418457,0.8321942090988159,25.212890625,8.425263404846191,0.7865267992019653,2.5663044452667236,0.5673714280128479,-0.09075040370225906
13722.0,48.74961853027344,21.230833053588867,0.8322612047195435,23.936079025268555,8.081238746643066,0.7558220624923706,2.622775077819824,0.504271924495697,-0.0797533169388771
13723.0,48.749637603759766,22.771575927734375,0.8323345184326172,22.539905548095703,7.653575420379639,0.7610664367675781,2.675631523132324,0.46872180700302124,-0.11331816017627716
13724.0,48.74966812133789,24.36857795715332,0.8324135541915894,21.01314353942871,7.1908183097839355,0.7268008589744568,2.686767816543579,0.4088578522205353,-0.12727399170398712
13725.0,48.749691009521484,26.023906707763672,0.8324975967407227,19.395753860473633,6.667191505432129,0.6780194640159607,2.673597574234009,0.37254059314727783,-0.09373729676008224
13726.0,48.74972152709961,27.739673614501953,0.8325871229171753,17.688108444213867,6.132792949676514,0.6456641554832458,2.6608028411865234,0.37298786640167236,-0.09625302255153656
13727.0,48.749752044677734,29.51810073852539,0.8326812386512756,15.882123947143555,5.543334484100342,0.5308999419212341,2.583946943283081,0.32317110896110535,-0.12203257530927658
13728.0,48.749778747558594,31.36147689819336,0.8327789306640625,14.081109046936035,4.966928005218506,0.497242271900177,2.5097544193267822,0.26081183552742004,-0.12782494723796844
13729.0,48.74980926513672,33.272159576416016,0.832878053188324,12.208637237548828,4.35921049118042,0.4590758979320526,2.4094913005828857,0.2153054177761078,-0.12478488683700562
13730.0,48.74984359741211,35.25261306762695,0.8329773545265198,10.243889808654785,3.6783010959625244,0.3591340184211731,2.300727605819702,0.14345671236515045,-0.06955889612436295
13731.0,48.74987030029297,37.305389404296875,0.8330742120742798,8.34398365020752,3.0707571506500244,0.3071846067905426,2.1413354873657227,0.07763244956731796,-0.11874006688594818
13732.0,48.74990463256836,39.43313217163086,0.8331640958786011,6.527587413787842,2.4739034175872803,0.23884662985801697,1.9669657945632935,0.03849426284432411,-0.06919696927070618
13733.0,48.74993133544922,41.63856887817383,0.8332414031028748,4.83372163772583,1.969179391860962,0.11593805998563766,1.731751561164856,0.0009675341425463557,-0.056727733463048935
13734.0,48.749942779541016,43.924537658691406,0.8333001136779785,3.48970627784729,1.7002041339874268,0.191835418343544,1.3850985765457153,-0.06363288313150406,0.012014553882181644
13735.0,48.749969482421875,46.294002532958984,0.8333286643028259,2.3311007022857666,1.3878661394119263,0.049313511699438095,0.9340156316757202,-0.05125179886817932,-0.053618934005498886
13736.0,48.74998474121094,48.74998474121094,0.8333338499069214,1.115155577659607,1.1267060041427612,0.0970258042216301,0.5406084656715393,0.004848346579819918,-0.005472783464938402
